     Program PWSCF v.7.3 starts on 20Aug2024 at 20:34: 5

     Waiting for input...
     Reading input from standard input

     Current dimensions of program PWSCF are:
     Max number of different atomic species (ntypx) = 10
     Max number of k-points (npk) =  40000
     Max angular momentum in pseudopotentials (lmaxx) =  4
     WARNING: atomic wfc #  3 for atom typeAl has zero norm
     WARNING: atomic wfc #  4 for atom typeAl has zero norm
     file Li.pbe-tm-gipaw-dc.UPF: wavefunction(s)  2S 2P 3S 3P renormalized
     Message from routine setup:
     using ibrav=0 with symmetry is DISCOURAGED, use correct ibrav instead

     R & G space division:  proc/nbgrp/npool/nimage =      12
     Subspace diagonalization in iterative solution of the eigenvalue problem:
     a serial algorithm will be used

     Using Slab Decomposition

     bravais-lattice index     =            0
     lattice parameter (alat)  =       9.7670  a.u.
     unit-cell volume          =    1127.8649 (a.u.)^3
     number of atoms/cell      =           16
     number of atomic types    =            3
     number of electrons       =        64.00
     number of Kohn-Sham states=           32
     kinetic-energy cutoff     =      80.0000  Ry
     charge density cutoff     =     600.0000  Ry
     scf convergence threshold =      1.0E-10
     mixing beta               =       0.4000
     number of iterations used =            8  plain     mixing
     energy convergence thresh.=      1.6E-05
     force convergence thresh. =      1.0E-05
     Exchange-correlation=  SLA  PW   PBX  PBC
                           (   1   4   3   4   0   0   0)
     nstep                     =           50

     celldm(1)=   9.767049  celldm(2)=   0.000000  celldm(3)=   0.000000
     celldm(4)=   0.000000  celldm(5)=   0.000000  celldm(6)=   0.000000

     crystal axes: (cart. coord. in units of alat)
               a(1) = (   1.000000   0.000000   0.000000 )
               a(2) = (   0.000000   1.000000   0.000000 )
               a(3) = (   0.000000   0.000000   1.210506 )

     reciprocal axes: (cart. coord. in units 2 pi/alat)
               b(1) = (  1.000000  0.000000  0.000000 )
               b(2) = (  0.000000  1.000000  0.000000 )
               b(3) = (  0.000000  0.000000  0.826101 )

     PseudoPot. # 1 for Al read from file:
     ../../pseudo/Al.pbe-tm-gipaw-dc.UPF
     MD5 check sum: efdf9c81b1c08458edd46fe92d869955
     Pseudo is Norm-conserving, Zval =  3.0
     Generated by new atomic code, or converted to UPF format
     Using radial grid of 1519 points,  2 beta functions with:
                l(1) =   0
                l(2) =   1

     PseudoPot. # 2 for Li read from file:
     ../../pseudo/Li.pbe-tm-gipaw-dc.UPF
     MD5 check sum: 258bf1e32d815cbe0990be85d5d6a6e5
     Pseudo is Norm-conserving + core correction, Zval =  1.0
     Generated by new atomic code, or converted to UPF format
     Using radial grid of 1371 points,  1 beta functions with:
                l(1) =   0

     PseudoPot. # 3 for O  read from file:
     ../../pseudo/O.pbe-tm-new-gipaw-dc.UPF
     MD5 check sum: cd70c9dcf1f7d755502eb127a1501eea
     Pseudo is Norm-conserving, Zval =  6.0
     Generated by new atomic code, or converted to UPF format
     Using radial grid of 1469 points,  1 beta functions with:
                l(1) =   0

     atomic species   valence    mass     pseudopotential
     Al                3.00    26.98154     Al( 1.00)
     Li                1.00     6.94100     Li( 1.00)
     O                 6.00    15.99940     O ( 1.00)

      8 Sym. Ops. (no inversion) found ( 6 have fractional translation)

                                    s                        frac. trans.

      isym =  1     identity

 cryst.   s( 1) = (     1          0          0      )
                  (     0          1          0      )
                  (     0          0          1      )

 cart.    s( 1) = (  1.0000000  0.0000000  0.0000000 )
                  (  0.0000000  1.0000000  0.0000000 )
                  (  0.0000000  0.0000000  1.0000000 )

      isym =  2     180 deg rotation - cart. axis [0,0,1]

 cryst.   s( 2) = (    -1          0          0      )    f =(  0.0000000 )
                  (     0         -1          0      )       (  0.0000000 )
                  (     0          0          1      )       (  0.5000000 )

 cart.    s( 2) = ( -1.0000000  0.0000000  0.0000000 )    f =(  0.0000000 )
                  (  0.0000000 -1.0000000  0.0000000 )       (  0.0000000 )
                  (  0.0000000  0.0000000  1.0000000 )       (  0.6052530 )

[...]

 cryst.   s( 5) = (     0          1          0      )
                  (     1          0          0      )
                  (     0          0         -1      )

 cart.    s( 5) = (  0.0000000  1.0000000  0.0000000 )
                  (  1.0000000  0.0000000  0.0000000 )
                  (  0.0000000  0.0000000 -1.0000000 )

[...]

      isym =  8      90 deg rotation - cart. axis [0,0,1]

 cryst.   s( 8) = (     0          1          0      )    f =(  0.5000000 )
                  (    -1          0          0      )       (  0.5000000 )
                  (     0          0          1      )       ( -0.2500000 )

 cart.    s( 8) = (  0.0000000 -1.0000000  0.0000000 )    f =(  0.5000000 )
                  (  1.0000000  0.0000000  0.0000000 )       (  0.5000000 )
                  (  0.0000000  0.0000000  1.0000000 )       ( -0.3026265 )

   Cartesian axes

     site n.     atom                  positions (alat units)
         1        Li     tau(   1) = (   0.3096000   0.6904000   0.9078795  )
         2        Li     tau(   2) = (   0.6904000   0.3096000   0.3026265  )
         3        Li     tau(   3) = (   0.1904000   0.1904000   0.6052530  )
         4        Li     tau(   4) = (   0.8096000   0.8096000   0.0000000  )
         5        Al     tau(   5) = (   0.6761000   0.3239000   0.9078795  )
         6        Al     tau(   6) = (   0.3239000   0.6761000   0.3026265  )
         7        Al     tau(   7) = (   0.8239000   0.8239000   0.6052530  )
         8        Al     tau(   8) = (   0.1761000   0.1761000   0.0000000  )
         9        O      tau(   9) = (   0.8376000   0.2099000   1.1831485  )
        10        O      tau(  10) = (   0.1624000   0.7901000   0.5778955  )
        11        O      tau(  11) = (   0.7099000   0.6624000   0.8805220  )
        12        O      tau(  12) = (   0.2901000   0.3376000   0.2752691  )
        13        O      tau(  13) = (   0.7901000   0.1624000   0.6326104  )
        14        O      tau(  14) = (   0.2099000   0.8376000   0.0273574  )
        15        O      tau(  15) = (   0.6624000   0.7099000   0.3299839  )
        16        O      tau(  16) = (   0.3376000   0.2901000   0.9352369  )

   Crystallographic axes

     site n.     atom                  positions (cryst. coord.)
         1        Li     tau(   1) = (  0.3096000  0.6904000  0.7500000  )
         2        Li     tau(   2) = (  0.6904000  0.3096000  0.2500000  )
         3        Li     tau(   3) = (  0.1904000  0.1904000  0.5000000  )
         4        Li     tau(   4) = (  0.8096000  0.8096000  0.0000000  )
         5        Al     tau(   5) = (  0.6761000  0.3239000  0.7500000  )
         6        Al     tau(   6) = (  0.3239000  0.6761000  0.2500000  )
         7        Al     tau(   7) = (  0.8239000  0.8239000  0.5000000  )
         8        Al     tau(   8) = (  0.1761000  0.1761000  0.0000000  )
         9        O      tau(   9) = (  0.8376000  0.2099000  0.9774000  )
        10        O      tau(  10) = (  0.1624000  0.7901000  0.4774000  )
        11        O      tau(  11) = (  0.7099000  0.6624000  0.7274000  )
        12        O      tau(  12) = (  0.2901000  0.3376000  0.2274000  )
        13        O      tau(  13) = (  0.7901000  0.1624000  0.5226000  )
        14        O      tau(  14) = (  0.2099000  0.8376000  0.0226000  )
        15        O      tau(  15) = (  0.6624000  0.7099000  0.2726000  )
        16        O      tau(  16) = (  0.3376000  0.2901000  0.7726000  )

     number of k points=   252
                       cart. coord. in units 2pi/alat
        k(    1) = (   0.0000000   0.0000000   0.0000000), wk =   0.0008503
        k(    2) = (   0.0000000   0.0000000   0.0688417), wk =   0.0017007
        k(    3) = (   0.0000000   0.0000000   0.1376835), wk =   0.0017007
        k(    4) = (   0.0000000   0.0000000   0.2065252), wk =   0.0017007
        k(    5) = (   0.0000000   0.0000000   0.2753670), wk =   0.0017007
        k(    6) = (   0.0000000   0.0000000   0.3442087), wk =   0.0017007
        k(    7) = (   0.0000000   0.0000000  -0.4130504), wk =   0.0008503
        k(    8) = (   0.0000000   0.0714286   0.0000000), wk =   0.0034014
        k(    9) = (   0.0000000   0.0714286   0.0688417), wk =   0.0068027
        k(   10) = (   0.0000000   0.0714286   0.1376835), wk =   0.0068027
        k(   11) = (   0.0000000   0.0714286   0.2065252), wk =   0.0068027
        k(   12) = (   0.0000000   0.0714286   0.2753670), wk =   0.0068027
        k(   13) = (   0.0000000   0.0714286   0.3442087), wk =   0.0068027
        k(   14) = (   0.0000000   0.0714286  -0.4130504), wk =   0.0034014
        k(   15) = (   0.0000000   0.1428571   0.0000000), wk =   0.0034014
        k(   16) = (   0.0000000   0.1428571   0.0688417), wk =   0.0068027
        k(   17) = (   0.0000000   0.1428571   0.1376835), wk =   0.0068027
        k(   18) = (   0.0000000   0.1428571   0.2065252), wk =   0.0068027
        k(   19) = (   0.0000000   0.1428571   0.2753670), wk =   0.0068027
        k(   20) = (   0.0000000   0.1428571   0.3442087), wk =   0.0068027
        k(   21) = (   0.0000000   0.1428571  -0.4130504), wk =   0.0034014
        k(   22) = (   0.0000000   0.2142857   0.0000000), wk =   0.0034014
        k(   23) = (   0.0000000   0.2142857   0.0688417), wk =   0.0068027
        k(   24) = (   0.0000000   0.2142857   0.1376835), wk =   0.0068027
        k(   25) = (   0.0000000   0.2142857   0.2065252), wk =   0.0068027
        k(   26) = (   0.0000000   0.2142857   0.2753670), wk =   0.0068027
        k(   27) = (   0.0000000   0.2142857   0.3442087), wk =   0.0068027
        k(   28) = (   0.0000000   0.2142857  -0.4130504), wk =   0.0034014
        k(   29) = (   0.0000000   0.2857143   0.0000000), wk =   0.0034014
        k(   30) = (   0.0000000   0.2857143   0.0688417), wk =   0.0068027
        k(   31) = (   0.0000000   0.2857143   0.1376835), wk =   0.0068027
        k(   32) = (   0.0000000   0.2857143   0.2065252), wk =   0.0068027
        k(   33) = (   0.0000000   0.2857143   0.2753670), wk =   0.0068027
        k(   34) = (   0.0000000   0.2857143   0.3442087), wk =   0.0068027
        k(   35) = (   0.0000000   0.2857143  -0.4130504), wk =   0.0034014
        k(   36) = (   0.0000000   0.3571429   0.0000000), wk =   0.0034014
        k(   37) = (   0.0000000   0.3571429   0.0688417), wk =   0.0068027
        k(   38) = (   0.0000000   0.3571429   0.1376835), wk =   0.0068027
        k(   39) = (   0.0000000   0.3571429   0.2065252), wk =   0.0068027
        k(   40) = (   0.0000000   0.3571429   0.2753670), wk =   0.0068027
[...]
     small trust_radius: resetting bfgs history

     new trust radius        =       0.0000322200 bohr
     new conv_thr            =            1.0E-12 Ry

ATOMIC_POSITIONS (crystal)
Li               0.3135699987        0.6864300013        0.7500000000
Li               0.6864300013        0.3135699987        0.2500000000
Li               0.1864300013        0.1864300013        0.5000000000
Li               0.8135699987        0.8135699987       -0.0000000000
Al               0.6753182476        0.3246817524        0.7500000000
Al               0.3246817524        0.6753182476        0.2500000000
Al               0.8246817524        0.8246817524        0.5000000000
Al               0.1753182476        0.1753182476        0.0000000000
O                0.8347194282        0.2081416467        0.9789758199
O                0.1652805718        0.7918583533        0.4789758199
O                0.7081416467        0.6652805718        0.7289758199
O                0.2918583533        0.3347194282        0.2289758199
O                0.7918583533        0.1652805718        0.5210241801
O                0.2081416467        0.8347194282        0.0210241801
O                0.6652805718        0.7081416467        0.2710241801
O                0.3347194282        0.2918583533        0.7710241801

     Writing config-only to output data dir ./out/LiAlO2.save/ :
     XML data file
     NEW-OLD atomic charge density approx. for the potential

     Self-consistent Calculation

[...]

     Threshold (ethr) on eigenvalues was too large:
     Diagonalizing with lowered threshold

     Davidson diagonalization with overlap

[...]

     total energy              =    -277.09886554 Ry
     estimated scf accuracy    <          1.3E-12 Ry

     iteration #  5     ecut=    80.00 Ry     beta= 0.40
     Davidson diagonalization with overlap

     ethr =  1.00E-13,  avg # of iterations =  1.0

     End of self-consistent calculation

[...]

          k = 0.4286-0.5000-0.4131 ( 13664 PWs)   bands (ev):

[...]

          k =-0.5000-0.5000-0.4131 ( 13672 PWs)   bands (ev):

   -13.4244 -13.4244 -13.4244 -13.4244 -12.8818 -12.8818 -12.8818 -12.8818
    -1.2217  -1.2217  -1.2217  -1.2217   0.3842   0.3842   0.3842   0.3842
     1.0419   1.0419   1.0419   1.0419   1.3877   1.3877   1.3877   1.3877
     2.0180   2.0180   2.0180   2.0180   2.8068   2.8068   2.8068   2.8068

     occupation numbers
     1.0000   1.0000   1.0000   1.0000   1.0000   1.0000   1.0000   1.0000
     1.0000   1.0000   1.0000   1.0000   1.0000   1.0000   1.0000   1.0000
     1.0000   1.0000   1.0000   1.0000   1.0000   1.0000   1.0000   1.0000
     1.0000   1.0000   1.0000   1.0000   1.0000   1.0000   1.0000   1.0000

     highest occupied level (ev):     3.1219

!    total energy              =    -277.09886554 Ry
     estimated scf accuracy    <          4.1E-14 Ry

     The total energy is the sum of the following terms:
     one-electron contribution =    -114.72565169 Ry
     hartree contribution      =      94.42736830 Ry
     xc contribution           =     -66.58342537 Ry
     ewald contribution        =    -190.21715677 Ry

     convergence has been achieved in   5 iterations

     Forces acting on atoms (cartesian axes, Ry/au):

     atom    1 type  2   force =     0.00000426   -0.00000426    0.00000000
     atom    2 type  2   force =    -0.00000426    0.00000426    0.00000000
     atom    3 type  2   force =    -0.00000426   -0.00000426    0.00000000
     atom    4 type  2   force =     0.00000426    0.00000426    0.00000000
     atom    5 type  1   force =     0.00001801   -0.00001801    0.00000000
     atom    6 type  1   force =    -0.00001801    0.00001801    0.00000000
     atom    7 type  1   force =    -0.00001801   -0.00001801    0.00000000
     atom    8 type  1   force =     0.00001801    0.00001801    0.00000000
     atom    9 type  3   force =     0.00001747   -0.00001851   -0.00000556
     atom   10 type  3   force =    -0.00001747    0.00001851   -0.00000556
     atom   11 type  3   force =    -0.00001851   -0.00001747   -0.00000556
     atom   12 type  3   force =     0.00001851    0.00001747   -0.00000556
     atom   13 type  3   force =     0.00001851   -0.00001747    0.00000556
     atom   14 type  3   force =    -0.00001851    0.00001747    0.00000556
     atom   15 type  3   force =    -0.00001747   -0.00001851    0.00000556
     atom   16 type  3   force =     0.00001747    0.00001851    0.00000556
     The non-local contrib.  to forces
     atom    1 type  2   force =    -0.00178944    0.00178944   -0.00000000
     atom    2 type  2   force =     0.00178944   -0.00178944    0.00000000
     atom    3 type  2   force =     0.00178944    0.00178944    0.00000000
     atom    4 type  2   force =    -0.00178944   -0.00178944   -0.00000000
     atom    5 type  1   force =     0.00326561   -0.00326561    0.00000000
     atom    6 type  1   force =    -0.00326561    0.00326561    0.00000000
     atom    7 type  1   force =    -0.00326561   -0.00326561   -0.00000000
     atom    8 type  1   force =     0.00326561    0.00326561    0.00000000
     atom    9 type  3   force =     0.33063142    0.13334397   -0.46625241
     atom   10 type  3   force =    -0.33063142   -0.13334397   -0.46625241
     atom   11 type  3   force =     0.13334397   -0.33063142   -0.46625241
     atom   12 type  3   force =    -0.13334397    0.33063142   -0.46625241
     atom   13 type  3   force =    -0.13334397   -0.33063142    0.46625241
     atom   14 type  3   force =     0.13334397    0.33063142    0.46625241
     atom   15 type  3   force =    -0.33063142    0.13334397    0.46625241
     atom   16 type  3   force =     0.33063142   -0.13334397    0.46625241
     The ionic contribution  to forces
     atom    1 type  2   force =    -0.12258414    0.12258414    0.00000000
     atom    2 type  2   force =     0.12258414   -0.12258414   -0.00000000
     atom    3 type  2   force =     0.12258414    0.12258414    0.00000000
     atom    4 type  2   force =    -0.12258414   -0.12258414   -0.00000000
     atom    5 type  1   force =     0.08768939   -0.08768939   -0.00000000
     atom    6 type  1   force =    -0.08768939    0.08768939    0.00000000
     atom    7 type  1   force =    -0.08768939   -0.08768939   -0.00000000
     atom    8 type  1   force =     0.08768939    0.08768939   -0.00000000
     atom    9 type  3   force =    -1.38324147   -0.28459553    2.03869188
     atom   10 type  3   force =     1.38324147    0.28459553    2.03869188
     atom   11 type  3   force =    -0.28459553    1.38324147    2.03869188
     atom   12 type  3   force =     0.28459553   -1.38324147    2.03869188
     atom   13 type  3   force =     0.28459553    1.38324147   -2.03869188
     atom   14 type  3   force =    -0.28459553   -1.38324147   -2.03869188
     atom   15 type  3   force =     1.38324147   -0.28459553   -2.03869188
     atom   16 type  3   force =    -1.38324147    0.28459553   -2.03869188
     The local contribution  to forces
     atom    1 type  2   force =     0.12330993   -0.12330993    0.00000000
     atom    2 type  2   force =    -0.12330993    0.12330993    0.00000000
     atom    3 type  2   force =    -0.12330993   -0.12330993   -0.00000000
     atom    4 type  2   force =     0.12330993    0.12330993   -0.00000000
     atom    5 type  1   force =    -0.09093698    0.09093698   -0.00000000
     atom    6 type  1   force =     0.09093698   -0.09093698   -0.00000000
     atom    7 type  1   force =     0.09093698    0.09093698   -0.00000000
     atom    8 type  1   force =    -0.09093698   -0.09093698    0.00000000
     atom    9 type  3   force =     1.05262749    0.15123308   -1.57244508
     atom   10 type  3   force =    -1.05262749   -0.15123308   -1.57244508
     atom   11 type  3   force =     0.15123308   -1.05262749   -1.57244508
     atom   12 type  3   force =    -0.15123308    1.05262749   -1.57244508
     atom   13 type  3   force =    -0.15123308   -1.05262749    1.57244508
     atom   14 type  3   force =     0.15123308    1.05262749    1.57244508
     atom   15 type  3   force =    -1.05262749    0.15123308    1.57244508
     atom   16 type  3   force =     1.05262749   -0.15123308    1.57244508
     The core correction contribution to forces
     atom    1 type  2   force =     0.00106791   -0.00106791    0.00000000
     atom    2 type  2   force =    -0.00106791    0.00106791    0.00000000
     atom    3 type  2   force =    -0.00106791   -0.00106791   -0.00000000
     atom    4 type  2   force =     0.00106791    0.00106791    0.00000000
     atom    5 type  1   force =     0.00000000    0.00000000    0.00000000
     atom    6 type  1   force =     0.00000000    0.00000000    0.00000000
     atom    7 type  1   force =     0.00000000    0.00000000    0.00000000
     atom    8 type  1   force =     0.00000000    0.00000000    0.00000000
     atom    9 type  3   force =     0.00000000    0.00000000    0.00000000
     atom   10 type  3   force =     0.00000000    0.00000000    0.00000000
     atom   11 type  3   force =     0.00000000    0.00000000    0.00000000
     atom   12 type  3   force =     0.00000000    0.00000000    0.00000000
     atom   13 type  3   force =     0.00000000    0.00000000    0.00000000
     atom   14 type  3   force =     0.00000000    0.00000000    0.00000000
     atom   15 type  3   force =     0.00000000    0.00000000    0.00000000
     atom   16 type  3   force =     0.00000000    0.00000000    0.00000000
     The Hubbard contrib.    to forces
     atom    1 type  2   force =     0.00000000    0.00000000    0.00000000
     atom    2 type  2   force =     0.00000000    0.00000000    0.00000000
     atom    3 type  2   force =     0.00000000    0.00000000    0.00000000
     atom    4 type  2   force =     0.00000000    0.00000000    0.00000000
     atom    5 type  1   force =     0.00000000    0.00000000    0.00000000
     atom    6 type  1   force =     0.00000000    0.00000000    0.00000000
     atom    7 type  1   force =     0.00000000    0.00000000    0.00000000
     atom    8 type  1   force =     0.00000000    0.00000000    0.00000000
     atom    9 type  3   force =     0.00000000    0.00000000    0.00000000
     atom   10 type  3   force =     0.00000000    0.00000000    0.00000000
     atom   11 type  3   force =     0.00000000    0.00000000    0.00000000
     atom   12 type  3   force =     0.00000000    0.00000000    0.00000000
     atom   13 type  3   force =     0.00000000    0.00000000    0.00000000
     atom   14 type  3   force =     0.00000000    0.00000000    0.00000000
     atom   15 type  3   force =     0.00000000    0.00000000    0.00000000
     atom   16 type  3   force =     0.00000000    0.00000000    0.00000000
     The SCF correction term to forces
     atom    1 type  2   force =    -0.00000000    0.00000000    0.00000000
     atom    2 type  2   force =     0.00000000   -0.00000000    0.00000000
     atom    3 type  2   force =     0.00000000    0.00000000   -0.00000000
     atom    4 type  2   force =    -0.00000000   -0.00000000   -0.00000000
     atom    5 type  1   force =    -0.00000002    0.00000002   -0.00000000
     atom    6 type  1   force =     0.00000002   -0.00000002   -0.00000000
     atom    7 type  1   force =     0.00000002    0.00000002    0.00000000
     atom    8 type  1   force =    -0.00000002   -0.00000002    0.00000000
     atom    9 type  3   force =     0.00000003   -0.00000002    0.00000004
     atom   10 type  3   force =    -0.00000003    0.00000002    0.00000004
     atom   11 type  3   force =    -0.00000002   -0.00000003    0.00000004
     atom   12 type  3   force =     0.00000002    0.00000003    0.00000004
     atom   13 type  3   force =     0.00000002   -0.00000003   -0.00000004
     atom   14 type  3   force =    -0.00000002    0.00000003   -0.00000004
     atom   15 type  3   force =    -0.00000003   -0.00000002   -0.00000004
     atom   16 type  3   force =     0.00000003    0.00000002   -0.00000004

     Total force =     0.000090     Total SCF correction =     0.000000

     Computing stress (Cartesian axis) and pressure

          total   stress  (Ry/bohr**3)                   (kbar)     P=       44.32
   0.00028806   0.00000000   0.00000000           42.38        0.00        0.00
   0.00000000   0.00028806   0.00000000            0.00       42.38        0.00
   0.00000000   0.00000000   0.00032765            0.00        0.00       48.20

     kinetic stress (kbar)  16697.19      0.00      0.00
                                0.00  16697.19      0.00
                                0.00      0.00  16652.70

     local   stress (kbar) -14298.90      0.00     -0.00
                                0.00 -14298.90      0.00
                               -0.00      0.00 -14395.86

     nonloc. stress (kbar)   4571.66      0.00      0.00
                                0.00   4571.66      0.00
                                0.00      0.00   4595.78

     hartree stress (kbar)   4135.77     -0.00      0.00
                               -0.00   4135.77      0.00
                                0.00      0.00   4044.44

     exc-cor stress (kbar)  -2643.15     -0.00     -0.00
                               -0.00  -2643.15      0.00
                               -0.00      0.00  -2640.38

     corecor stress (kbar)    -78.41     -0.00      0.00
                               -0.00    -78.41      0.00
                                0.00      0.00    -82.38

     ewald   stress (kbar)  -8341.77      0.00      0.00
                                0.00  -8341.77     -0.00
                                0.00     -0.00  -8126.09

     hubbard stress (kbar)      0.00      0.00      0.00
                                0.00      0.00      0.00
                                0.00      0.00      0.00

     DFT-D   stress (kbar)      0.00      0.00      0.00
                                0.00      0.00      0.00
                                0.00      0.00      0.00

     XDM     stress (kbar)      0.00      0.00      0.00
                                0.00      0.00      0.00
                                0.00      0.00      0.00

     dft-nl  stress (kbar)      0.00      0.00      0.00
                                0.00      0.00      0.00
                                0.00      0.00      0.00

     TS-vdW  stress (kbar)      0.00      0.00      0.00
                                0.00      0.00      0.00
                                0.00      0.00      0.00

     MDB     stress (kbar)      0.00      0.00      0.00
                                0.00      0.00      0.00
                                0.00      0.00      0.00

     3D-RISM stress (kbar)      0.00      0.00      0.00
                                0.00      0.00      0.00
                                0.00      0.00      0.00

     Message from routine bfgs:
     history already reset at previous step: exiting
     Energy error            =      1.1E-08 Ry
     Gradient error          =      1.9E-05 Ry/Bohr

     bfgs failed after  16 scf cycles and  15 bfgs steps, convergence not achieved
     (criteria: energy <  1.6E-05 Ry, force <  1.0E-05 Ry/Bohr)

     End of BFGS Geometry Optimization

     Final energy             =    -277.0988655427 Ry

     File ./out/LiAlO2.bfgs deleted, as requested
Begin final coordinates

ATOMIC_POSITIONS (crystal)
Li               0.3135699987        0.6864300013        0.7500000000
Li               0.6864300013        0.3135699987        0.2500000000
Li               0.1864300013        0.1864300013        0.5000000000
Li               0.8135699987        0.8135699987       -0.0000000000
Al               0.6753182476        0.3246817524        0.7500000000
Al               0.3246817524        0.6753182476        0.2500000000
Al               0.8246817524        0.8246817524        0.5000000000
Al               0.1753182476        0.1753182476        0.0000000000
O                0.8347194282        0.2081416467        0.9789758199
O                0.1652805718        0.7918583533        0.4789758199
O                0.7081416467        0.6652805718        0.7289758199
O                0.2918583533        0.3347194282        0.2289758199
O                0.7918583533        0.1652805718        0.5210241801
O                0.2081416467        0.8347194282        0.0210241801
O                0.6652805718        0.7081416467        0.2710241801
O                0.3347194282        0.2918583533        0.7710241801
End final coordinates

     Writing all to output data dir ./out/LiAlO2.save/ :
     XML data file, charge density, pseudopotentials, collected wavefunctions

     General routines

     Parallel routines

   This run was terminated on:  21:46: 7  20Aug2024

   JOB DONE.