     Program PWSCF v.7.3.1 starts on 11Nov2024 at 18: 9:24

     Reading input from LAC_relax.in

     Current dimensions of program PWSCF are:
     Max number of different atomic species (ntypx) = 10
     Max number of k-points (npk) =  40000
     Max angular momentum in pseudopotentials (lmaxx) =  4
     file Li.pbe-tm-gipaw-dc.UPF: wavefunction(s)  2S 2P 3S 3P renormalized
     WARNING: atomic wfc #  3 for atom typeAl has zero norm
     WARNING: atomic wfc #  4 for atom typeAl has zero norm
     Message from routine setup:
     using ibrav=0 with symmetry is DISCOURAGED, use correct ibrav instead

     R & G space division:  proc/nbgrp/npool/nimage =       4
     Subspace diagonalization in iterative solution of the eigenvalue problem:
     a serial algorithm will be used

     Using Slab Decomposition

     bravais-lattice index     =            0
     lattice parameter (alat)  =      12.2889  a.u.
     unit-cell volume          =    3987.9110 (a.u.)^3
     number of atoms/cell      =           24
     number of atomic types    =            3
     number of electrons       =       128.00
     number of Kohn-Sham states=           64
     kinetic-energy cutoff     =     100.0000  Ry
     charge density cutoff     =     600.0000  Ry
     scf convergence threshold =      1.0E-06
     mixing beta               =       0.4000
     number of iterations used =            8  plain     mixing
     energy convergence thresh.=      1.0E-04
     force convergence thresh. =      1.0E-03
     Exchange-correlation=  SLA  PW   PBX  PBC
                           (   1   4   3   4   0   0   0)
     nstep                     =           50

     celldm(1)=  12.288889  celldm(2)=   0.000000  celldm(3)=   0.000000
     celldm(4)=   0.000000  celldm(5)=   0.000000  celldm(6)=   0.000000

     crystal axes: (cart. coord. in units of alat)
               a(1) = (  -0.000000  -1.000000  -0.000000 )
               a(2) = (  -1.075255   0.000000   0.061999 )
               a(3) = (   0.000000   0.000000  -1.998462 )

     reciprocal axes: (cart. coord. in units 2 pi/alat)
               b(1) = ( -0.000000 -1.000000 -0.000000 )
               b(2) = ( -0.930012  0.000000  0.000000 )
               b(3) = ( -0.028852  0.000000 -0.500385 )

     PseudoPot. # 1 for Li read from file:
     /home/cgurwell/projects/rrg-ravh011/cgurwell/pseudo/Li.pbe-tm-gipaw-dc.UPF
     MD5 check sum: 258bf1e32d815cbe0990be85d5d6a6e5
     Pseudo is Norm-conserving + core correction, Zval =  1.0
     Generated by new atomic code, or converted to UPF format
     Using radial grid of 1371 points,  1 beta functions with:
                l(1) =   0

     PseudoPot. # 2 for Al read from file:
     /home/cgurwell/projects/rrg-ravh011/cgurwell/pseudo/Al.pbe-tm-gipaw-dc.UPF
     MD5 check sum: efdf9c81b1c08458edd46fe92d869955
     Pseudo is Norm-conserving, Zval =  3.0
     Generated by new atomic code, or converted to UPF format
     Using radial grid of 1519 points,  2 beta functions with:
                l(1) =   0
                l(2) =   1

     PseudoPot. # 3 for Cl read from file:
     /home/cgurwell/projects/rrg-ravh011/cgurwell/pseudo/Cl.pbe-tm-gipaw.UPF
     MD5 check sum: 6263502ce953d769893a136fffc16e2a
     Pseudo is Norm-conserving, Zval =  7.0
     Generated by new atomic code, or converted to UPF format
     Using radial grid of 1157 points,  2 beta functions with:
                l(1) =   0
                l(2) =   1

     atomic species   valence    mass     pseudopotential
     Li                1.00     6.94100     Li( 1.00)
     Al                3.00    26.98154     Al( 1.00)
     Cl                7.00    35.45300     Cl( 1.00)

      4 Sym. Ops., with inversion, found ( 2 have fractional translation)

                                    s                        frac. trans.

      isym =  1     identity

 cryst.   s( 1) = (     1          0          0      )
                  (     0          1          0      )
                  (     0          0          1      )

 cart.    s( 1) = (  1.0000000  0.0000000  0.0000000 )
                  (  0.0000000  1.0000000  0.0000000 )
                  (  0.0000000  0.0000000  1.0000000 )

      isym =  2     180 deg rotation - cart. axis [0,1,0]

 cryst.   s( 2) = (     1          0          0      )    f =( -0.5000000 )
                  (     0         -1          0      )       (  0.0000000 )
                  (     0          0         -1      )       (  0.5000000 )

 cart.    s( 2) = ( -1.0000000  0.0000000  0.0000000 )    f =(  0.0000000 )
                  (  0.0000000  1.0000000  0.0000000 )       (  0.5000000 )
                  ( -0.0000000  0.0000000 -1.0000000 )       ( -0.9992311 )

      isym =  3     inversion

 cryst.   s( 3) = (    -1          0          0      )
                  (     0         -1          0      )
                  (     0          0         -1      )

 cart.    s( 3) = ( -1.0000000  0.0000000  0.0000000 )
                  (  0.0000000 -1.0000000  0.0000000 )
                  ( -0.0000000  0.0000000 -1.0000000 )

      isym =  4     inv. 180 deg rotation - cart. axis [0,1,0]

 cryst.   s( 4) = (    -1          0          0      )    f =(  0.5000000 )
                  (     0          1          0      )       (  0.0000000 )
                  (     0          0          1      )       ( -0.5000000 )

 cart.    s( 4) = (  1.0000000  0.0000000  0.0000000 )    f =( -0.0000000 )
                  (  0.0000000 -1.0000000  0.0000000 )       ( -0.5000000 )
                  (  0.0000000  0.0000000  1.0000000 )       (  0.9992311 )

   Cartesian axes

     site n.     atom                  positions (alat units)
         1        Li     tau(   1) = (  -0.9056877  -0.4850000  -0.2183702  )
         2        Li     tau(   2) = (  -0.1695678  -0.9850000  -0.7188621  )
         3        Li     tau(   3) = (  -0.1695678  -0.5150000  -1.7180932  )
         4        Li     tau(   4) = (  -0.9056877  -0.0150000  -1.2176013  )
         5        Al     tau(   5) = (  -0.3162326  -0.8217000  -1.1827820  )
         6        Al     tau(   6) = (  -0.7590228  -0.3217000  -1.7529125  )
         7        Al     tau(   7) = (  -0.7590228  -0.1783000  -0.7536814  )
         8        Al     tau(   8) = (  -0.3162326  -0.6783000  -0.1835509  )
         9        Cl     tau(   9) = (  -0.3292432  -0.6832000  -0.8869788  )
        10        Cl     tau(  10) = (  -0.7460122  -0.1832000  -0.0502534  )
        11        Cl     tau(  11) = (  -0.7460122  -0.3168000  -1.0494846  )
        12        Cl     tau(  12) = (  -0.3292432  -0.8168000  -1.8862100  )
        13        Cl     tau(  13) = (  -0.2058039  -0.1281000  -1.1300747  )
        14        Cl     tau(  14) = (  -0.8694515  -0.6281000  -1.8056198  )
        15        Cl     tau(  15) = (  -0.8694515  -0.8719000  -0.8063887  )
        16        Cl     tau(  16) = (  -0.2058039  -0.3719000  -0.1308436  )
        17        Cl     tau(  17) = (  -0.0801065  -0.6812000  -1.3666060  )
        18        Cl     tau(  18) = (  -0.9951489  -0.1812000  -1.5690886  )
        19        Cl     tau(  19) = (  -0.9951489  -0.3188000  -0.5698574  )
        20        Cl     tau(  20) = (  -0.0801065  -0.8188000  -0.3673748  )
        21        Cl     tau(  21) = (  -0.6024656  -0.8140000  -1.3383055  )
        22        Cl     tau(  22) = (  -0.4727898  -0.3140000  -1.5973890  )
        23        Cl     tau(  23) = (  -0.4727898  -0.1860000  -0.5981579  )
        24        Cl     tau(  24) = (  -0.6024656  -0.6860000  -0.3390744  )

   Crystallographic axes

     site n.     atom                  positions (cryst. coord.)
         1        Li     tau(   1) = (  0.4850000  0.8423000  0.1354000  )
         2        Li     tau(   2) = (  0.9850000  0.1577000  0.3646000  )
         3        Li     tau(   3) = (  0.5150000  0.1577000  0.8646000  )
         4        Li     tau(   4) = (  0.0150000  0.8423000  0.6354000  )
         5        Al     tau(   5) = (  0.8217000  0.2941000  0.6009700  )
         6        Al     tau(   6) = (  0.3217000  0.7059000  0.8990300  )
         7        Al     tau(   7) = (  0.1783000  0.7059000  0.3990300  )
         8        Al     tau(   8) = (  0.6783000  0.2941000  0.1009700  )
         9        Cl     tau(   9) = (  0.6832000  0.3062000  0.4533300  )
        10        Cl     tau(  10) = (  0.1832000  0.6938000  0.0466700  )
        11        Cl     tau(  11) = (  0.3168000  0.6938000  0.5466700  )
        12        Cl     tau(  12) = (  0.8168000  0.3062000  0.9533300  )
        13        Cl     tau(  13) = (  0.1281000  0.1914000  0.5714100  )
        14        Cl     tau(  14) = (  0.6281000  0.8086000  0.9285900  )
        15        Cl     tau(  15) = (  0.8719000  0.8086000  0.4285900  )
        16        Cl     tau(  16) = (  0.3719000  0.1914000  0.0714100  )
        17        Cl     tau(  17) = (  0.6812000  0.0745000  0.6861400  )
        18        Cl     tau(  18) = (  0.1812000  0.9255000  0.8138600  )
        19        Cl     tau(  19) = (  0.3188000  0.9255000  0.3138600  )
        20        Cl     tau(  20) = (  0.8188000  0.0745000  0.1861400  )
        21        Cl     tau(  21) = (  0.8140000  0.5603000  0.6870500  )
        22        Cl     tau(  22) = (  0.3140000  0.4397000  0.8129500  )
        23        Cl     tau(  23) = (  0.1860000  0.4397000  0.3129500  )
        24        Cl     tau(  24) = (  0.6860000  0.5603000  0.1870500  )

     number of k points=    39
                       cart. coord. in units 2pi/alat
        k(    1) = (  -0.0000000   0.0000000   0.0000000), wk =   0.0160000
        k(    2) = (  -0.0057704   0.0000000  -0.1000769), wk =   0.0320000
        k(    3) = (  -0.0115408   0.0000000  -0.2001539), wk =   0.0320000
        k(    4) = (  -0.1860023   0.0000000   0.0000000), wk =   0.0320000
        k(    5) = (  -0.1917727   0.0000000  -0.1000769), wk =   0.0320000
        k(    6) = (  -0.1975431   0.0000000  -0.2001539), wk =   0.0320000
        k(    7) = (  -0.1744615   0.0000000   0.2001539), wk =   0.0320000
        k(    8) = (  -0.1802319   0.0000000   0.1000769), wk =   0.0320000
        k(    9) = (  -0.3720046   0.0000000   0.0000000), wk =   0.0320000
        k(   10) = (  -0.3777750   0.0000000  -0.1000769), wk =   0.0320000
        k(   11) = (  -0.3835454   0.0000000  -0.2001539), wk =   0.0320000
        k(   12) = (  -0.3604638   0.0000000   0.2001539), wk =   0.0320000
        k(   13) = (  -0.3662342   0.0000000   0.1000769), wk =   0.0320000
        k(   14) = (  -0.0000000  -0.2000000   0.0000000), wk =   0.0320000
        k(   15) = (  -0.0057704  -0.2000000  -0.1000769), wk =   0.0640000
        k(   16) = (  -0.0115408  -0.2000000  -0.2001539), wk =   0.0640000
        k(   17) = (  -0.1860023  -0.2000000   0.0000000), wk =   0.0640000
        k(   18) = (  -0.1917727  -0.2000000  -0.1000769), wk =   0.0640000
        k(   19) = (  -0.1975431  -0.2000000  -0.2001539), wk =   0.0640000
        k(   20) = (  -0.1744615  -0.2000000   0.2001539), wk =   0.0640000
        k(   21) = (  -0.1802319  -0.2000000   0.1000769), wk =   0.0640000
        k(   22) = (  -0.3720046  -0.2000000   0.0000000), wk =   0.0640000
[...]
     atom   20 type  3   force =    -0.00007055    0.00037231    0.00012862
     atom   21 type  3   force =     0.00026462   -0.00048661    0.00066378
     atom   22 type  3   force =    -0.00026462   -0.00048661   -0.00066378
     atom   23 type  3   force =    -0.00026462    0.00048661   -0.00066378
     atom   24 type  3   force =     0.00026462    0.00048661    0.00066378
     The non-local contrib.  to forces
     atom    1 type  1   force =    -0.01639343   -0.01549155   -0.00236172
     atom    2 type  1   force =     0.01639343   -0.01549155    0.00236172
     atom    3 type  1   force =     0.01639343    0.01549155    0.00236172
     atom    4 type  1   force =    -0.01639343    0.01549155   -0.00236172
     atom    5 type  2   force =     0.00189858    0.01279066   -0.02954437
     atom    6 type  2   force =    -0.00189858    0.01279066    0.02954437
     atom    7 type  2   force =    -0.00189858   -0.01279066    0.02954437
     atom    8 type  2   force =     0.00189858   -0.01279066   -0.02954437
     atom    9 type  3   force =     0.03911548   -0.14904968   -0.16638169
     atom   10 type  3   force =    -0.03911548   -0.14904968    0.16638169
     atom   11 type  3   force =    -0.03911548    0.14904968    0.16638169
     atom   12 type  3   force =     0.03911548    0.14904968   -0.16638169
     atom   13 type  3   force =    -0.02451543    0.21555184   -0.01530247
     atom   14 type  3   force =     0.02451543    0.21555184    0.01530247
     atom   15 type  3   force =     0.02451543   -0.21555184    0.01530247
     atom   16 type  3   force =    -0.02451543   -0.21555184   -0.01530247
     atom   17 type  3   force =    -0.16472429   -0.09754960    0.05630477
     atom   18 type  3   force =     0.16472429   -0.09754960   -0.05630477
     atom   19 type  3   force =     0.16472429    0.09754960   -0.05630477
     atom   20 type  3   force =    -0.16472429    0.09754960    0.05630477
     atom   21 type  3   force =     0.14377729   -0.06544478    0.16186425
     atom   22 type  3   force =    -0.14377729   -0.06544478   -0.16186425
     atom   23 type  3   force =    -0.14377729    0.06544478   -0.16186425
     atom   24 type  3   force =     0.14377729    0.06544478    0.16186425
     The ionic contribution  to forces
     atom    1 type  1   force =    -0.00963165   -0.05751027   -0.11189765
     atom    2 type  1   force =     0.00963165   -0.05751027    0.11189765
     atom    3 type  1   force =     0.00963165    0.05751027    0.11189765
     atom    4 type  1   force =    -0.00963165    0.05751027   -0.11189765
     atom    5 type  2   force =    -0.21382059    0.24999370   -0.18536997
     atom    6 type  2   force =     0.21382059    0.24999370    0.18536997
     atom    7 type  2   force =     0.21382059   -0.24999370    0.18536997
     atom    8 type  2   force =    -0.21382059   -0.24999370   -0.18536997
     atom    9 type  3   force =    -0.23122911    1.92244206    2.01799273
     atom   10 type  3   force =     0.23122911    1.92244206   -2.01799273
     atom   11 type  3   force =     0.23122911   -1.92244206   -2.01799273
     atom   12 type  3   force =    -0.23122911   -1.92244206    2.01799273
     atom   13 type  3   force =     0.18250674   -2.88275336   -0.00843747
     atom   14 type  3   force =    -0.18250674   -2.88275336    0.00843747
     atom   15 type  3   force =    -0.18250674    2.88275336    0.00843747
     atom   16 type  3   force =     0.18250674    2.88275336   -0.00843747
     atom   17 type  3   force =     1.54526770    1.34840337   -0.97150808
     atom   18 type  3   force =    -1.54526770    1.34840337    0.97150808
     atom   19 type  3   force =    -1.54526770   -1.34840337    0.97150808
     atom   20 type  3   force =     1.54526770   -1.34840337   -0.97150808
     atom   21 type  3   force =    -1.75934531    0.40192467   -1.27128173
     atom   22 type  3   force =     1.75934531    0.40192467    1.27128173
     atom   23 type  3   force =     1.75934531   -0.40192467    1.27128173
     atom   24 type  3   force =    -1.75934531   -0.40192467   -1.27128173
     The local contribution  to forces
     atom    1 type  1   force =     0.02279601    0.07072276    0.11463146
     atom    2 type  1   force =    -0.02279601    0.07072276   -0.11463146
     atom    3 type  1   force =    -0.02279601   -0.07072276   -0.11463146
     atom    4 type  1   force =     0.02279601   -0.07072276    0.11463146
     atom    5 type  2   force =     0.21204974   -0.26324241    0.21500370
     atom    6 type  2   force =    -0.21204974   -0.26324241   -0.21500370
     atom    7 type  2   force =    -0.21204974    0.26324241   -0.21500370
     atom    8 type  2   force =     0.21204974    0.26324241    0.21500370
     atom    9 type  3   force =     0.19190592   -1.77369408   -1.85216122
     atom   10 type  3   force =    -0.19190592   -1.77369408    1.85216122
     atom   11 type  3   force =    -0.19190592    1.77369408    1.85216122
     atom   12 type  3   force =     0.19190592    1.77369408   -1.85216122
     atom   13 type  3   force =    -0.15819797    2.66788268    0.02380585
     atom   14 type  3   force =     0.15819797    2.66788268   -0.02380585
     atom   15 type  3   force =     0.15819797   -2.66788268   -0.02380585
     atom   16 type  3   force =    -0.15819797   -2.66788268    0.02380585
     atom   17 type  3   force =    -1.38061243   -1.25120021    0.91532865
     atom   18 type  3   force =     1.38061243   -1.25120021   -0.91532865
     atom   19 type  3   force =     1.38061243    1.25120021   -0.91532865
     atom   20 type  3   force =    -1.38061243    1.25120021    0.91532865
     atom   21 type  3   force =     1.61581264   -0.33697033    1.11006850
     atom   22 type  3   force =    -1.61581264   -0.33697033   -1.11006850
     atom   23 type  3   force =    -1.61581264    0.33697033   -1.11006850
     atom   24 type  3   force =     1.61581264    0.33697033    1.11006850
     The core correction contribution to forces
     atom    1 type  1   force =     0.00246980    0.00233231    0.00041619
     atom    2 type  1   force =    -0.00246980    0.00233231   -0.00041619
     atom    3 type  1   force =    -0.00246980   -0.00233231   -0.00041619
     atom    4 type  1   force =     0.00246980   -0.00233231    0.00041619
     atom    5 type  2   force =     0.00000000    0.00000000    0.00000000
     atom    6 type  2   force =     0.00000000    0.00000000    0.00000000
     atom    7 type  2   force =     0.00000000    0.00000000    0.00000000
     atom    8 type  2   force =     0.00000000    0.00000000    0.00000000
     atom    9 type  3   force =     0.00000000    0.00000000    0.00000000
     atom   10 type  3   force =     0.00000000    0.00000000    0.00000000
     atom   11 type  3   force =     0.00000000    0.00000000    0.00000000
     atom   12 type  3   force =     0.00000000    0.00000000    0.00000000
     atom   13 type  3   force =     0.00000000    0.00000000    0.00000000
     atom   14 type  3   force =     0.00000000    0.00000000    0.00000000
     atom   15 type  3   force =     0.00000000    0.00000000    0.00000000
     atom   16 type  3   force =     0.00000000    0.00000000    0.00000000
     atom   17 type  3   force =     0.00000000    0.00000000    0.00000000
     atom   18 type  3   force =     0.00000000    0.00000000    0.00000000
     atom   19 type  3   force =     0.00000000    0.00000000    0.00000000
     atom   20 type  3   force =     0.00000000    0.00000000    0.00000000
     atom   21 type  3   force =     0.00000000    0.00000000    0.00000000
     atom   22 type  3   force =     0.00000000    0.00000000    0.00000000
     atom   23 type  3   force =     0.00000000    0.00000000    0.00000000
     atom   24 type  3   force =     0.00000000    0.00000000    0.00000000
     The Hubbard contrib.    to forces
     atom    1 type  1   force =     0.00000000    0.00000000    0.00000000
     atom    2 type  1   force =     0.00000000    0.00000000    0.00000000
     atom    3 type  1   force =     0.00000000    0.00000000    0.00000000
     atom    4 type  1   force =     0.00000000    0.00000000    0.00000000
     atom    5 type  2   force =     0.00000000    0.00000000    0.00000000
     atom    6 type  2   force =     0.00000000    0.00000000    0.00000000
     atom    7 type  2   force =     0.00000000    0.00000000    0.00000000
     atom    8 type  2   force =     0.00000000    0.00000000    0.00000000
     atom    9 type  3   force =     0.00000000    0.00000000    0.00000000
     atom   10 type  3   force =     0.00000000    0.00000000    0.00000000
     atom   11 type  3   force =     0.00000000    0.00000000    0.00000000
     atom   12 type  3   force =     0.00000000    0.00000000    0.00000000
     atom   13 type  3   force =     0.00000000    0.00000000    0.00000000
     atom   14 type  3   force =     0.00000000    0.00000000    0.00000000
     atom   15 type  3   force =     0.00000000    0.00000000    0.00000000
     atom   16 type  3   force =     0.00000000    0.00000000    0.00000000
     atom   17 type  3   force =     0.00000000    0.00000000    0.00000000
     atom   18 type  3   force =     0.00000000    0.00000000    0.00000000
     atom   19 type  3   force =     0.00000000    0.00000000    0.00000000
     atom   20 type  3   force =     0.00000000    0.00000000    0.00000000
     atom   21 type  3   force =     0.00000000    0.00000000    0.00000000
     atom   22 type  3   force =     0.00000000    0.00000000    0.00000000
     atom   23 type  3   force =     0.00000000    0.00000000    0.00000000
     atom   24 type  3   force =     0.00000000    0.00000000    0.00000000
     The SCF correction term to forces
     atom    1 type  1   force =     0.00000000   -0.00000006    0.00000011
     atom    2 type  1   force =    -0.00000000   -0.00000006   -0.00000011
     atom    3 type  1   force =    -0.00000000    0.00000006   -0.00000011
     atom    4 type  1   force =     0.00000000    0.00000006    0.00000011
     atom    5 type  2   force =    -0.00000004    0.00000288   -0.00000205
     atom    6 type  2   force =     0.00000004    0.00000288    0.00000205
     atom    7 type  2   force =     0.00000004   -0.00000288    0.00000205
     atom    8 type  2   force =    -0.00000004   -0.00000288   -0.00000205
     atom    9 type  3   force =    -0.00001129   -0.00002244    0.00001884
     atom   10 type  3   force =     0.00001129   -0.00002244   -0.00001884
     atom   11 type  3   force =     0.00001129    0.00002244   -0.00001884
     atom   12 type  3   force =    -0.00001129    0.00002244    0.00001884
     atom   13 type  3   force =     0.00003150   -0.00001709    0.00001568
     atom   14 type  3   force =    -0.00003150   -0.00001709   -0.00001568
     atom   15 type  3   force =    -0.00003150    0.00001709   -0.00001568
     atom   16 type  3   force =     0.00003150    0.00001709    0.00001568
     atom   17 type  3   force =    -0.00000152   -0.00002588    0.00000328
     atom   18 type  3   force =     0.00000152   -0.00002588   -0.00000328
     atom   19 type  3   force =     0.00000152    0.00002588   -0.00000328
     atom   20 type  3   force =    -0.00000152    0.00002588    0.00000328
     atom   21 type  3   force =     0.00002000    0.00000383    0.00001276
     atom   22 type  3   force =    -0.00002000    0.00000383   -0.00001276
     atom   23 type  3   force =    -0.00002000   -0.00000383   -0.00001276
     atom   24 type  3   force =     0.00002000   -0.00000383    0.00001276

     Total force =     0.003607     Total SCF correction =     0.000123

     Computing stress (Cartesian axis) and pressure

          total   stress  (Ry/bohr**3)                   (kbar)     P=        7.60
   0.00005159   0.00000000   0.00000216            7.59        0.00        0.32
   0.00000000   0.00005604   0.00000000            0.00        8.24        0.00
   0.00000216   0.00000000   0.00004731            0.32        0.00        6.96

     kinetic stress (kbar)   4565.14      0.00    -10.14
                                0.00   4611.29      0.00
                              -10.14      0.00   4568.86

     local   stress (kbar)  -6088.83     -0.00   -102.66
                               -0.00  -5331.12      0.00
                             -102.66      0.00  -5795.24

     nonloc. stress (kbar)   5724.30      0.00      1.10
                                0.00   5723.24      0.00
                                1.10      0.00   5724.22

     hartree stress (kbar)   1443.54     -0.00     27.77
                               -0.00   1206.78      0.00
                               27.77      0.00   1334.97

     exc-cor stress (kbar)  -1153.73      0.00      0.26
                                0.00  -1154.91      0.00
                                0.26      0.00  -1154.29

     corecor stress (kbar)    -20.09     -0.00     -0.02
                               -0.00    -20.10     -0.00
                               -0.02     -0.00    -19.90

     ewald   stress (kbar)  -4462.73     -0.00     84.02
                               -0.00  -5026.94     -0.00
                               84.02     -0.00  -4651.65

     hubbard stress (kbar)      0.00      0.00      0.00
                                0.00      0.00      0.00
                                0.00      0.00      0.00

     DFT-D   stress (kbar)      0.00      0.00      0.00
                                0.00      0.00      0.00
                                0.00      0.00      0.00

     XDM     stress (kbar)      0.00      0.00      0.00
                                0.00      0.00      0.00
                                0.00      0.00      0.00

     dft-nl  stress (kbar)      0.00      0.00      0.00
                                0.00      0.00      0.00
                                0.00      0.00      0.00

     TS-vdW  stress (kbar)      0.00      0.00      0.00
                                0.00      0.00      0.00
                                0.00      0.00      0.00

     MDB     stress (kbar)      0.00      0.00      0.00
                                0.00      0.00      0.00
                                0.00      0.00      0.00

     3D-RISM stress (kbar)      0.00      0.00      0.00
                                0.00      0.00      0.00
                                0.00      0.00      0.00

     Energy error            =      8.2E-05 Ry
     Gradient error          =      7.9E-04 Ry/Bohr

     bfgs converged in  10 scf cycles and   9 bfgs steps
     (criteria: energy <  1.0E-04 Ry, force <  1.0E-03 Ry/Bohr)

     End of BFGS Geometry Optimization

     Final energy             =    -501.7083753380 Ry

     File ./out/LAC.bfgs deleted, as requested
Begin final coordinates

ATOMIC_POSITIONS (crystal)
Li               0.4836927641        0.8441570483        0.1338779421
Li               0.9836927641        0.1558429517        0.3661220579
Li               0.5163072359        0.1558429517        0.8661220579
Li               0.0163072359        0.8441570483        0.6338779421
Al               0.8224331503        0.2941466310        0.6006334695
Al               0.3224331503        0.7058533690        0.8993665305
Al               0.1775668497        0.7058533690        0.3993665305
Al               0.6775668497        0.2941466310        0.1006334695
Cl               0.6821559396        0.3061483686        0.4513109536
Cl               0.1821559396        0.6938516314        0.0486890464
Cl               0.3178440604        0.6938516314        0.5486890464
Cl               0.8178440604        0.3061483686        0.9513109536
Cl               0.1317773638        0.1883007604        0.5706977707
Cl               0.6317773638        0.8116992396        0.9293022293
Cl               0.8682226362        0.8116992396        0.4293022293
Cl               0.3682226362        0.1883007604        0.0706977707
Cl               0.6803183671        0.0718863651        0.6872345811
Cl               0.1803183671        0.9281136349        0.8127654189
Cl               0.3196816329        0.9281136349        0.3127654189
Cl               0.8196816329        0.0718863651        0.1872345811
Cl               0.8138796502        0.5633115529        0.6879288781
Cl               0.3138796502        0.4366884471        0.8120711219
Cl               0.1861203498        0.4366884471        0.3120711219
Cl               0.6861203498        0.5633115529        0.1879288781
End final coordinates

     Writing all to output data dir ./out/LAC.save/ :
     XML data file, charge density, pseudopotentials, collected wavefunctions

     General routines

     Parallel routines

   This run was terminated on:  21:29:49  11Nov2024

   JOB DONE.