     Program PWSCF v.7.3.1 starts on 10Nov2024 at 20:16: 9

     Reading input from LAC_scf_ecutwfc-40.in

     Current dimensions of program PWSCF are:
     Max number of different atomic species (ntypx) = 10
     Max number of k-points (npk) =  40000
     Max angular momentum in pseudopotentials (lmaxx) =  4
     file Li.pbe-tm-gipaw-dc.UPF: wavefunction(s)  2S 2P 3S 3P renormalized
     WARNING: atomic wfc #  3 for atom typeAl has zero norm
     WARNING: atomic wfc #  4 for atom typeAl has zero norm
     Message from routine setup:
     using ibrav=0 with symmetry is DISCOURAGED, use correct ibrav instead

     R & G space division:  proc/nbgrp/npool/nimage =       4
     Subspace diagonalization in iterative solution of the eigenvalue problem:
     a serial algorithm will be used

     Using Slab Decomposition

     bravais-lattice index     =            0
     lattice parameter (alat)  =      12.2889  a.u.
     unit-cell volume          =    3987.9110 (a.u.)^3
     number of atoms/cell      =           24
     number of atomic types    =            3
     number of electrons       =       128.00
     number of Kohn-Sham states=           64
     kinetic-energy cutoff     =      40.0000  Ry
     charge density cutoff     =     600.0000  Ry
     scf convergence threshold =      1.0E-06
     mixing beta               =       0.4000
     number of iterations used =            8  plain     mixing
     Exchange-correlation=  SLA  PW   PBX  PBC
                           (   1   4   3   4   0   0   0)

     celldm(1)=  12.288889  celldm(2)=   0.000000  celldm(3)=   0.000000
     celldm(4)=   0.000000  celldm(5)=   0.000000  celldm(6)=   0.000000

     crystal axes: (cart. coord. in units of alat)
               a(1) = (  -0.000000  -1.000000  -0.000000 )
               a(2) = (  -1.075255   0.000000   0.061999 )
               a(3) = (   0.000000   0.000000  -1.998462 )

     reciprocal axes: (cart. coord. in units 2 pi/alat)
               b(1) = ( -0.000000 -1.000000 -0.000000 )
               b(2) = ( -0.930012  0.000000  0.000000 )
               b(3) = ( -0.028852  0.000000 -0.500385 )

     PseudoPot. # 1 for Li read from file:
     /home/cgurwell/projects/rrg-ravh011/cgurwell/pseudo/Li.pbe-tm-gipaw-dc.UPF
     MD5 check sum: 258bf1e32d815cbe0990be85d5d6a6e5
     Pseudo is Norm-conserving + core correction, Zval =  1.0
     Generated by new atomic code, or converted to UPF format
     Using radial grid of 1371 points,  1 beta functions with:
                l(1) =   0

     PseudoPot. # 2 for Al read from file:
     /home/cgurwell/projects/rrg-ravh011/cgurwell/pseudo/Al.pbe-tm-gipaw-dc.UPF
     MD5 check sum: efdf9c81b1c08458edd46fe92d869955
     Pseudo is Norm-conserving, Zval =  3.0
     Generated by new atomic code, or converted to UPF format
     Using radial grid of 1519 points,  2 beta functions with:
                l(1) =   0
                l(2) =   1

     PseudoPot. # 3 for Cl read from file:
     /home/cgurwell/projects/rrg-ravh011/cgurwell/pseudo/Cl.pbe-tm-gipaw.UPF
     MD5 check sum: 6263502ce953d769893a136fffc16e2a
     Pseudo is Norm-conserving, Zval =  7.0
     Generated by new atomic code, or converted to UPF format
     Using radial grid of 1157 points,  2 beta functions with:
                l(1) =   0
                l(2) =   1

     atomic species   valence    mass     pseudopotential
     Li                1.00     6.94100     Li( 1.00)
     Al                3.00    26.98154     Al( 1.00)
     Cl                7.00    35.45300     Cl( 1.00)

      4 Sym. Ops., with inversion, found ( 2 have fractional translation)

                                    s                        frac. trans.

      isym =  1     identity

 cryst.   s( 1) = (     1          0          0      )
                  (     0          1          0      )
                  (     0          0          1      )

 cart.    s( 1) = (  1.0000000  0.0000000  0.0000000 )
                  (  0.0000000  1.0000000  0.0000000 )
                  (  0.0000000  0.0000000  1.0000000 )

      isym =  2     180 deg rotation - cart. axis [0,1,0]

 cryst.   s( 2) = (     1          0          0      )    f =( -0.5000000 )
                  (     0         -1          0      )       (  0.0000000 )
                  (     0          0         -1      )       (  0.5000000 )

 cart.    s( 2) = ( -1.0000000  0.0000000  0.0000000 )    f =(  0.0000000 )
                  (  0.0000000  1.0000000  0.0000000 )       (  0.5000000 )
                  ( -0.0000000  0.0000000 -1.0000000 )       ( -0.9992311 )

      isym =  3     inversion

 cryst.   s( 3) = (    -1          0          0      )
                  (     0         -1          0      )
                  (     0          0         -1      )

 cart.    s( 3) = ( -1.0000000  0.0000000  0.0000000 )
                  (  0.0000000 -1.0000000  0.0000000 )
                  ( -0.0000000  0.0000000 -1.0000000 )

      isym =  4     inv. 180 deg rotation - cart. axis [0,1,0]

 cryst.   s( 4) = (    -1          0          0      )    f =(  0.5000000 )
                  (     0          1          0      )       (  0.0000000 )
                  (     0          0          1      )       ( -0.5000000 )

 cart.    s( 4) = (  1.0000000  0.0000000  0.0000000 )    f =( -0.0000000 )
                  (  0.0000000 -1.0000000  0.0000000 )       ( -0.5000000 )
                  (  0.0000000  0.0000000  1.0000000 )       (  0.9992311 )

   Cartesian axes

     site n.     atom                  positions (alat units)
         1        Li     tau(   1) = (  -0.9056877  -0.4850000  -0.2183702  )
         2        Li     tau(   2) = (  -0.1695678  -0.9850000  -0.7188621  )
         3        Li     tau(   3) = (  -0.1695678  -0.5150000  -1.7180932  )
         4        Li     tau(   4) = (  -0.9056877  -0.0150000  -1.2176013  )
         5        Al     tau(   5) = (  -0.3162326  -0.8217000  -1.1827820  )
         6        Al     tau(   6) = (  -0.7590228  -0.3217000  -1.7529125  )
         7        Al     tau(   7) = (  -0.7590228  -0.1783000  -0.7536814  )
         8        Al     tau(   8) = (  -0.3162326  -0.6783000  -0.1835509  )
         9        Cl     tau(   9) = (  -0.3292432  -0.6832000  -0.8869788  )
        10        Cl     tau(  10) = (  -0.7460122  -0.1832000  -0.0502534  )
        11        Cl     tau(  11) = (  -0.7460122  -0.3168000  -1.0494846  )
        12        Cl     tau(  12) = (  -0.3292432  -0.8168000  -1.8862100  )
        13        Cl     tau(  13) = (  -0.2058039  -0.1281000  -1.1300747  )
        14        Cl     tau(  14) = (  -0.8694515  -0.6281000  -1.8056198  )
        15        Cl     tau(  15) = (  -0.8694515  -0.8719000  -0.8063887  )
        16        Cl     tau(  16) = (  -0.2058039  -0.3719000  -0.1308436  )
        17        Cl     tau(  17) = (  -0.0801065  -0.6812000  -1.3666060  )
        18        Cl     tau(  18) = (  -0.9951489  -0.1812000  -1.5690886  )
        19        Cl     tau(  19) = (  -0.9951489  -0.3188000  -0.5698574  )
        20        Cl     tau(  20) = (  -0.0801065  -0.8188000  -0.3673748  )
        21        Cl     tau(  21) = (  -0.6024656  -0.8140000  -1.3383055  )
        22        Cl     tau(  22) = (  -0.4727898  -0.3140000  -1.5973890  )
        23        Cl     tau(  23) = (  -0.4727898  -0.1860000  -0.5981579  )
        24        Cl     tau(  24) = (  -0.6024656  -0.6860000  -0.3390744  )

   Crystallographic axes

     site n.     atom                  positions (cryst. coord.)
         1        Li     tau(   1) = (  0.4850000  0.8423000  0.1354000  )
         2        Li     tau(   2) = (  0.9850000  0.1577000  0.3646000  )
         3        Li     tau(   3) = (  0.5150000  0.1577000  0.8646000  )
         4        Li     tau(   4) = (  0.0150000  0.8423000  0.6354000  )
         5        Al     tau(   5) = (  0.8217000  0.2941000  0.6009700  )
         6        Al     tau(   6) = (  0.3217000  0.7059000  0.8990300  )
         7        Al     tau(   7) = (  0.1783000  0.7059000  0.3990300  )
         8        Al     tau(   8) = (  0.6783000  0.2941000  0.1009700  )
         9        Cl     tau(   9) = (  0.6832000  0.3062000  0.4533300  )
        10        Cl     tau(  10) = (  0.1832000  0.6938000  0.0466700  )
        11        Cl     tau(  11) = (  0.3168000  0.6938000  0.5466700  )
        12        Cl     tau(  12) = (  0.8168000  0.3062000  0.9533300  )
        13        Cl     tau(  13) = (  0.1281000  0.1914000  0.5714100  )
        14        Cl     tau(  14) = (  0.6281000  0.8086000  0.9285900  )
        15        Cl     tau(  15) = (  0.8719000  0.8086000  0.4285900  )
        16        Cl     tau(  16) = (  0.3719000  0.1914000  0.0714100  )
        17        Cl     tau(  17) = (  0.6812000  0.0745000  0.6861400  )
        18        Cl     tau(  18) = (  0.1812000  0.9255000  0.8138600  )
        19        Cl     tau(  19) = (  0.3188000  0.9255000  0.3138600  )
        20        Cl     tau(  20) = (  0.8188000  0.0745000  0.1861400  )
        21        Cl     tau(  21) = (  0.8140000  0.5603000  0.6870500  )
        22        Cl     tau(  22) = (  0.3140000  0.4397000  0.8129500  )
        23        Cl     tau(  23) = (  0.1860000  0.4397000  0.3129500  )
        24        Cl     tau(  24) = (  0.6860000  0.5603000  0.1870500  )

     number of k points=    39
                       cart. coord. in units 2pi/alat
        k(    1) = (  -0.0000000   0.0000000   0.0000000), wk =   0.0160000
        k(    2) = (  -0.0057704   0.0000000  -0.1000769), wk =   0.0320000
        k(    3) = (  -0.0115408   0.0000000  -0.2001539), wk =   0.0320000
        k(    4) = (  -0.1860023   0.0000000   0.0000000), wk =   0.0320000
        k(    5) = (  -0.1917727   0.0000000  -0.1000769), wk =   0.0320000
        k(    6) = (  -0.1975431   0.0000000  -0.2001539), wk =   0.0320000
        k(    7) = (  -0.1744615   0.0000000   0.2001539), wk =   0.0320000
        k(    8) = (  -0.1802319   0.0000000   0.1000769), wk =   0.0320000
        k(    9) = (  -0.3720046   0.0000000   0.0000000), wk =   0.0320000
        k(   10) = (  -0.3777750   0.0000000  -0.1000769), wk =   0.0320000
        k(   11) = (  -0.3835454   0.0000000  -0.2001539), wk =   0.0320000
        k(   12) = (  -0.3604638   0.0000000   0.2001539), wk =   0.0320000
        k(   13) = (  -0.3662342   0.0000000   0.1000769), wk =   0.0320000
        k(   14) = (  -0.0000000  -0.2000000   0.0000000), wk =   0.0320000
        k(   15) = (  -0.0057704  -0.2000000  -0.1000769), wk =   0.0640000
        k(   16) = (  -0.0115408  -0.2000000  -0.2001539), wk =   0.0640000
        k(   17) = (  -0.1860023  -0.2000000   0.0000000), wk =   0.0640000
        k(   18) = (  -0.1917727  -0.2000000  -0.1000769), wk =   0.0640000
        k(   19) = (  -0.1975431  -0.2000000  -0.2001539), wk =   0.0640000
        k(   20) = (  -0.1744615  -0.2000000   0.2001539), wk =   0.0640000
        k(   21) = (  -0.1802319  -0.2000000   0.1000769), wk =   0.0640000
        k(   22) = (  -0.3720046  -0.2000000   0.0000000), wk =   0.0640000
        k(   23) = (  -0.3777750  -0.2000000  -0.1000769), wk =   0.0640000
[...]
     1.0000   1.0000   1.0000   1.0000   1.0000   1.0000   1.0000   1.0000
     1.0000   1.0000   1.0000   1.0000   1.0000   1.0000   1.0000   1.0000

     highest occupied level (ev):     0.0759

!    total energy              =    -501.55930878 Ry
     estimated scf accuracy    <       0.00000004 Ry

     The total energy is the sum of the following terms:
     one-electron contribution =    -126.97778480 Ry
     hartree contribution      =     109.52008041 Ry
     xc contribution           =    -102.60838916 Ry
     ewald contribution        =    -381.49321522 Ry

     convergence has been achieved in  10 iterations

     Forces acting on atoms (cartesian axes, Ry/au):

     atom    1 type  1   force =    -0.00088161    0.00080103    0.00199608
     atom    2 type  1   force =     0.00088161    0.00080103   -0.00199608
     atom    3 type  1   force =     0.00088161   -0.00080103   -0.00199608
     atom    4 type  1   force =    -0.00088161   -0.00080103    0.00199608
     atom    5 type  2   force =    -0.00062462   -0.00207508    0.00212024
     atom    6 type  2   force =     0.00062462   -0.00207508   -0.00212024
     atom    7 type  2   force =     0.00062462    0.00207508   -0.00212024
     atom    8 type  2   force =    -0.00062462    0.00207508    0.00212024
     atom    9 type  3   force =    -0.00028316    0.00611406    0.01319042
     atom   10 type  3   force =     0.00028316    0.00611406   -0.01319042
     atom   11 type  3   force =     0.00028316   -0.00611406   -0.01319042
     atom   12 type  3   force =    -0.00028316   -0.00611406    0.01319042
     atom   13 type  3   force =     0.00553594   -0.01254575    0.00177609
     atom   14 type  3   force =    -0.00553594   -0.01254575   -0.00177609
     atom   15 type  3   force =    -0.00553594    0.01254575   -0.00177609
     atom   16 type  3   force =     0.00553594    0.01254575    0.00177609
     atom   17 type  3   force =     0.01087832    0.00663442   -0.00934667
     atom   18 type  3   force =    -0.01087832    0.00663442    0.00934667
     atom   19 type  3   force =    -0.01087832   -0.00663442    0.00934667
     atom   20 type  3   force =     0.01087832   -0.00663442   -0.00934667
     atom   21 type  3   force =    -0.01342151    0.00049422   -0.00715664
     atom   22 type  3   force =     0.01342151    0.00049422    0.00715664
     atom   23 type  3   force =     0.01342151   -0.00049422    0.00715664
     atom   24 type  3   force =    -0.01342151   -0.00049422   -0.00715664
     The non-local contrib.  to forces
     atom    1 type  1   force =    -0.01738424   -0.01339644   -0.00098328
     atom    2 type  1   force =     0.01738424   -0.01339644    0.00098328
     atom    3 type  1   force =     0.01738424    0.01339644    0.00098328
     atom    4 type  1   force =    -0.01738424    0.01339644   -0.00098328
     atom    5 type  2   force =     0.00086798    0.01438971   -0.03002330
     atom    6 type  2   force =    -0.00086798    0.01438971    0.03002330
     atom    7 type  2   force =    -0.00086798   -0.01438971    0.03002330
     atom    8 type  2   force =     0.00086798   -0.01438971   -0.03002330
     atom    9 type  3   force =     0.04219239   -0.14808904   -0.15611773
     atom   10 type  3   force =    -0.04219239   -0.14808904    0.15611773
     atom   11 type  3   force =    -0.04219239    0.14808904    0.15611773
     atom   12 type  3   force =     0.04219239    0.14808904   -0.15611773
     atom   13 type  3   force =    -0.01603956    0.20884071   -0.01496543
     atom   14 type  3   force =     0.01603956    0.20884071    0.01496543
     atom   15 type  3   force =     0.01603956   -0.20884071    0.01496543
     atom   16 type  3   force =    -0.01603956   -0.20884071   -0.01496543
     atom   17 type  3   force =    -0.15542453   -0.09271276    0.04485936
     atom   18 type  3   force =     0.15542453   -0.09271276   -0.04485936
     atom   19 type  3   force =     0.15542453    0.09271276   -0.04485936
     atom   20 type  3   force =    -0.15542453    0.09271276    0.04485936
     atom   21 type  3   force =     0.13035961   -0.06549758    0.15646465
     atom   22 type  3   force =    -0.13035961   -0.06549758   -0.15646465
     atom   23 type  3   force =    -0.13035961    0.06549758   -0.15646465
     atom   24 type  3   force =     0.13035961    0.06549758    0.15646465
     The ionic contribution  to forces
     atom    1 type  1   force =    -0.02423539   -0.05007099   -0.11403160
     atom    2 type  1   force =     0.02423539   -0.05007099    0.11403160
     atom    3 type  1   force =     0.02423539    0.05007099    0.11403160
     atom    4 type  1   force =    -0.02423539    0.05007099   -0.11403160
     atom    5 type  2   force =    -0.18827817    0.26150167   -0.19527978
     atom    6 type  2   force =     0.18827817    0.26150167    0.19527978
     atom    7 type  2   force =     0.18827817   -0.26150167    0.19527978
     atom    8 type  2   force =    -0.18827817   -0.26150167   -0.19527978
     atom    9 type  3   force =    -0.15118188    2.01723636    2.20437328
     atom   10 type  3   force =     0.15118188    2.01723636   -2.20437328
     atom   11 type  3   force =     0.15118188   -2.01723636   -2.20437328
     atom   12 type  3   force =    -0.15118188   -2.01723636    2.20437328
     atom   13 type  3   force =     0.32252200   -3.04795898   -0.01908978
     atom   14 type  3   force =    -0.32252200   -3.04795898    0.01908978
     atom   15 type  3   force =    -0.32252200    3.04795898    0.01908978
     atom   16 type  3   force =     0.32252200    3.04795898   -0.01908978
     atom   17 type  3   force =     1.72511832    1.44022468   -1.10806173
     atom   18 type  3   force =    -1.72511832    1.44022468    1.10806173
     atom   19 type  3   force =    -1.72511832   -1.44022468    1.10806173
     atom   20 type  3   force =     1.72511832   -1.44022468   -1.10806173
     atom   21 type  3   force =    -1.95880577    0.42461295   -1.37177756
     atom   22 type  3   force =     1.95880577    0.42461295    1.37177756
     atom   23 type  3   force =     1.95880577   -0.42461295    1.37177756
     atom   24 type  3   force =    -1.95880577   -0.42461295   -1.37177756
     The local contribution  to forces
     atom    1 type  1   force =     0.03808828    0.06224202    0.11680028
     atom    2 type  1   force =    -0.03808828    0.06224202   -0.11680028
     atom    3 type  1   force =    -0.03808828   -0.06224202   -0.11680028
     atom    4 type  1   force =     0.03808828   -0.06224202    0.11680028
     atom    5 type  2   force =     0.18678448   -0.27797645    0.22743628
     atom    6 type  2   force =    -0.18678448   -0.27797645   -0.22743628
     atom    7 type  2   force =    -0.18678448    0.27797645   -0.22743628
     atom    8 type  2   force =     0.18678448    0.27797645    0.22743628
     atom    9 type  3   force =     0.10872977   -1.86308274   -2.03497053
     atom   10 type  3   force =    -0.10872977   -1.86308274    2.03497053
     atom   11 type  3   force =    -0.10872977    1.86308274    2.03497053
     atom   12 type  3   force =     0.10872977    1.86308274   -2.03497053
     atom   13 type  3   force =    -0.30090786    2.82655613    0.03589788
     atom   14 type  3   force =     0.30090786    2.82655613   -0.03589788
     atom   15 type  3   force =     0.30090786   -2.82655613   -0.03589788
     atom   16 type  3   force =    -0.30090786   -2.82655613    0.03589788
     atom   17 type  3   force =    -1.55871398   -1.34085689    1.05379870
     atom   18 type  3   force =     1.55871398   -1.34085689   -1.05379870
     atom   19 type  3   force =     1.55871398    1.34085689   -1.05379870
     atom   20 type  3   force =    -1.55871398    1.34085689    1.05379870
     atom   21 type  3   force =     1.81492250   -0.35864343    1.20814153
     atom   22 type  3   force =    -1.81492250   -0.35864343   -1.20814153
     atom   23 type  3   force =    -1.81492250    0.35864343   -1.20814153
     atom   24 type  3   force =     1.81492250    0.35864343    1.20814153
     The core correction contribution to forces
     atom    1 type  1   force =     0.00265063    0.00202652    0.00021189
     atom    2 type  1   force =    -0.00265063    0.00202652   -0.00021189
     atom    3 type  1   force =    -0.00265063   -0.00202652   -0.00021189
     atom    4 type  1   force =     0.00265063   -0.00202652    0.00021189
     atom    5 type  2   force =     0.00000000    0.00000000    0.00000000
     atom    6 type  2   force =     0.00000000    0.00000000    0.00000000
     atom    7 type  2   force =     0.00000000    0.00000000    0.00000000
     atom    8 type  2   force =     0.00000000    0.00000000    0.00000000
     atom    9 type  3   force =     0.00000000    0.00000000    0.00000000
     atom   10 type  3   force =     0.00000000    0.00000000    0.00000000
     atom   11 type  3   force =     0.00000000    0.00000000    0.00000000
     atom   12 type  3   force =     0.00000000    0.00000000    0.00000000
     atom   13 type  3   force =     0.00000000    0.00000000    0.00000000
     atom   14 type  3   force =     0.00000000    0.00000000    0.00000000
     atom   15 type  3   force =     0.00000000    0.00000000    0.00000000
     atom   16 type  3   force =     0.00000000    0.00000000    0.00000000
     atom   17 type  3   force =     0.00000000    0.00000000    0.00000000
     atom   18 type  3   force =     0.00000000    0.00000000    0.00000000
     atom   19 type  3   force =     0.00000000    0.00000000    0.00000000
     atom   20 type  3   force =     0.00000000    0.00000000    0.00000000
     atom   21 type  3   force =     0.00000000    0.00000000    0.00000000
     atom   22 type  3   force =     0.00000000    0.00000000    0.00000000
     atom   23 type  3   force =     0.00000000    0.00000000    0.00000000
     atom   24 type  3   force =     0.00000000    0.00000000    0.00000000
     The Hubbard contrib.    to forces
     atom    1 type  1   force =     0.00000000    0.00000000    0.00000000
     atom    2 type  1   force =     0.00000000    0.00000000    0.00000000
     atom    3 type  1   force =     0.00000000    0.00000000    0.00000000
     atom    4 type  1   force =     0.00000000    0.00000000    0.00000000
     atom    5 type  2   force =     0.00000000    0.00000000    0.00000000
     atom    6 type  2   force =     0.00000000    0.00000000    0.00000000
     atom    7 type  2   force =     0.00000000    0.00000000    0.00000000
     atom    8 type  2   force =     0.00000000    0.00000000    0.00000000
     atom    9 type  3   force =     0.00000000    0.00000000    0.00000000
     atom   10 type  3   force =     0.00000000    0.00000000    0.00000000
     atom   11 type  3   force =     0.00000000    0.00000000    0.00000000
     atom   12 type  3   force =     0.00000000    0.00000000    0.00000000
     atom   13 type  3   force =     0.00000000    0.00000000    0.00000000
     atom   14 type  3   force =     0.00000000    0.00000000    0.00000000
     atom   15 type  3   force =     0.00000000    0.00000000    0.00000000
     atom   16 type  3   force =     0.00000000    0.00000000    0.00000000
     atom   17 type  3   force =     0.00000000    0.00000000    0.00000000
     atom   18 type  3   force =     0.00000000    0.00000000    0.00000000
     atom   19 type  3   force =     0.00000000    0.00000000    0.00000000
     atom   20 type  3   force =     0.00000000    0.00000000    0.00000000
     atom   21 type  3   force =     0.00000000    0.00000000    0.00000000
     atom   22 type  3   force =     0.00000000    0.00000000    0.00000000
     atom   23 type  3   force =     0.00000000    0.00000000    0.00000000
     atom   24 type  3   force =     0.00000000    0.00000000    0.00000000
     The SCF correction term to forces
     atom    1 type  1   force =    -0.00000089   -0.00000008   -0.00000120
     atom    2 type  1   force =     0.00000089   -0.00000008    0.00000120
     atom    3 type  1   force =     0.00000089    0.00000008    0.00000120
     atom    4 type  1   force =    -0.00000089    0.00000008   -0.00000120
     atom    5 type  2   force =     0.00000109    0.00000999   -0.00001296
     atom    6 type  2   force =    -0.00000109    0.00000999    0.00001296
     atom    7 type  2   force =    -0.00000109   -0.00000999    0.00001296
     atom    8 type  2   force =     0.00000109   -0.00000999   -0.00001296
     atom    9 type  3   force =    -0.00002343    0.00004949   -0.00009459
     atom   10 type  3   force =     0.00002343    0.00004949    0.00009459
     atom   11 type  3   force =     0.00002343   -0.00004949    0.00009459
     atom   12 type  3   force =    -0.00002343   -0.00004949   -0.00009459
     atom   13 type  3   force =    -0.00003865    0.00001639   -0.00006657
     atom   14 type  3   force =     0.00003865    0.00001639    0.00006657
     atom   15 type  3   force =     0.00003865   -0.00001639    0.00006657
     atom   16 type  3   force =    -0.00003865   -0.00001639   -0.00006657
     atom   17 type  3   force =    -0.00010149   -0.00002061    0.00005700
     atom   18 type  3   force =     0.00010149   -0.00002061   -0.00005700
     atom   19 type  3   force =     0.00010149    0.00002061   -0.00005700
     atom   20 type  3   force =    -0.00010149    0.00002061    0.00005700
     atom   21 type  3   force =     0.00010215    0.00002228    0.00001474
     atom   22 type  3   force =    -0.00010215    0.00002228   -0.00001474
     atom   23 type  3   force =    -0.00010215   -0.00002228   -0.00001474
     atom   24 type  3   force =     0.00010215   -0.00002228    0.00001474

     Total force =     0.059952     Total SCF correction =     0.000417

     Computing stress (Cartesian axis) and pressure

          total   stress  (Ry/bohr**3)                   (kbar)     P=       14.71
   0.00010239   0.00000000   0.00000241           15.06        0.00        0.35
   0.00000000   0.00009956   0.00000000            0.00       14.65        0.00
   0.00000241   0.00000000   0.00009807            0.35        0.00       14.43

     kinetic stress (kbar)   4593.65      0.00     -9.87
                                0.00   4640.48      0.00
                               -9.87      0.00   4598.38

     local   stress (kbar)  -6141.87     -0.00    -92.07
                               -0.00  -5380.16     -0.00
                              -92.07     -0.00  -5842.24

     nonloc. stress (kbar)   5713.30      0.00      1.22
                                0.00   5712.00      0.00
                                1.22      0.00   5713.29

     hartree stress (kbar)   1462.55     -0.00     24.13
                               -0.00   1225.48      0.00
                               24.13      0.00   1351.92

     exc-cor stress (kbar)  -1156.20     -0.00      0.25
                               -0.00  -1157.35     -0.00
                                0.25     -0.00  -1156.75

     corecor stress (kbar)    -20.03     -0.00     -0.02
                               -0.00    -20.03     -0.00
                               -0.02     -0.00    -19.85

     ewald   stress (kbar)  -4436.33     -0.00     76.71
                               -0.00  -5005.77      0.00
                               76.71      0.00  -4630.32

     hubbard stress (kbar)      0.00      0.00      0.00
                                0.00      0.00      0.00
                                0.00      0.00      0.00

     DFT-D   stress (kbar)      0.00      0.00      0.00
                                0.00      0.00      0.00
                                0.00      0.00      0.00

     XDM     stress (kbar)      0.00      0.00      0.00
                                0.00      0.00      0.00
                                0.00      0.00      0.00

     dft-nl  stress (kbar)      0.00      0.00      0.00
                                0.00      0.00      0.00
                                0.00      0.00      0.00

     TS-vdW  stress (kbar)      0.00      0.00      0.00
                                0.00      0.00      0.00
                                0.00      0.00      0.00

     MDB     stress (kbar)      0.00      0.00      0.00
                                0.00      0.00      0.00
                                0.00      0.00      0.00

     3D-RISM stress (kbar)      0.00      0.00      0.00
                                0.00      0.00      0.00
                                0.00      0.00      0.00

     Writing all to output data dir ./out/LAC.save/ :
     XML data file, charge density, pseudopotentials, collected wavefunctions

     General routines

     Parallel routines

   This run was terminated on:  21:53:54  10Nov2024

   JOB DONE.