     Program PWSCF v.7.3.1 starts on 10Nov2024 at 18:56:24

     Reading input from LAC_scf_ecutwfc-30.in

     Current dimensions of program PWSCF are:
     Max number of different atomic species (ntypx) = 10
     Max number of k-points (npk) =  40000
     Max angular momentum in pseudopotentials (lmaxx) =  4
     file Li.pbe-tm-gipaw-dc.UPF: wavefunction(s)  2S 2P 3S 3P renormalized
     WARNING: atomic wfc #  3 for atom typeAl has zero norm
     WARNING: atomic wfc #  4 for atom typeAl has zero norm
     Message from routine setup:
     using ibrav=0 with symmetry is DISCOURAGED, use correct ibrav instead

     R & G space division:  proc/nbgrp/npool/nimage =       4
     Subspace diagonalization in iterative solution of the eigenvalue problem:
     a serial algorithm will be used

     Using Slab Decomposition

     bravais-lattice index     =            0
     lattice parameter (alat)  =      12.2889  a.u.
     unit-cell volume          =    3987.9110 (a.u.)^3
     number of atoms/cell      =           24
     number of atomic types    =            3
     number of electrons       =       128.00
     number of Kohn-Sham states=           64
     kinetic-energy cutoff     =      30.0000  Ry
     charge density cutoff     =     600.0000  Ry
     scf convergence threshold =      1.0E-06
     mixing beta               =       0.4000
     number of iterations used =            8  plain     mixing
     Exchange-correlation=  SLA  PW   PBX  PBC
                           (   1   4   3   4   0   0   0)

     celldm(1)=  12.288889  celldm(2)=   0.000000  celldm(3)=   0.000000
     celldm(4)=   0.000000  celldm(5)=   0.000000  celldm(6)=   0.000000

     crystal axes: (cart. coord. in units of alat)
               a(1) = (  -0.000000  -1.000000  -0.000000 )
               a(2) = (  -1.075255   0.000000   0.061999 )
               a(3) = (   0.000000   0.000000  -1.998462 )

     reciprocal axes: (cart. coord. in units 2 pi/alat)
               b(1) = ( -0.000000 -1.000000 -0.000000 )
               b(2) = ( -0.930012  0.000000  0.000000 )
               b(3) = ( -0.028852  0.000000 -0.500385 )

     PseudoPot. # 1 for Li read from file:
     /home/cgurwell/projects/rrg-ravh011/cgurwell/pseudo/Li.pbe-tm-gipaw-dc.UPF
     MD5 check sum: 258bf1e32d815cbe0990be85d5d6a6e5
     Pseudo is Norm-conserving + core correction, Zval =  1.0
     Generated by new atomic code, or converted to UPF format
     Using radial grid of 1371 points,  1 beta functions with:
                l(1) =   0

     PseudoPot. # 2 for Al read from file:
     /home/cgurwell/projects/rrg-ravh011/cgurwell/pseudo/Al.pbe-tm-gipaw-dc.UPF
     MD5 check sum: efdf9c81b1c08458edd46fe92d869955
     Pseudo is Norm-conserving, Zval =  3.0
     Generated by new atomic code, or converted to UPF format
     Using radial grid of 1519 points,  2 beta functions with:
                l(1) =   0
                l(2) =   1

     PseudoPot. # 3 for Cl read from file:
     /home/cgurwell/projects/rrg-ravh011/cgurwell/pseudo/Cl.pbe-tm-gipaw.UPF
     MD5 check sum: 6263502ce953d769893a136fffc16e2a
     Pseudo is Norm-conserving, Zval =  7.0
     Generated by new atomic code, or converted to UPF format
     Using radial grid of 1157 points,  2 beta functions with:
                l(1) =   0
                l(2) =   1

     atomic species   valence    mass     pseudopotential
     Li                1.00     6.94100     Li( 1.00)
     Al                3.00    26.98154     Al( 1.00)
     Cl                7.00    35.45300     Cl( 1.00)

      4 Sym. Ops., with inversion, found ( 2 have fractional translation)

                                    s                        frac. trans.

      isym =  1     identity

 cryst.   s( 1) = (     1          0          0      )
                  (     0          1          0      )
                  (     0          0          1      )

 cart.    s( 1) = (  1.0000000  0.0000000  0.0000000 )
                  (  0.0000000  1.0000000  0.0000000 )
                  (  0.0000000  0.0000000  1.0000000 )

      isym =  2     180 deg rotation - cart. axis [0,1,0]

 cryst.   s( 2) = (     1          0          0      )    f =( -0.5000000 )
                  (     0         -1          0      )       (  0.0000000 )
                  (     0          0         -1      )       (  0.5000000 )

 cart.    s( 2) = ( -1.0000000  0.0000000  0.0000000 )    f =(  0.0000000 )
                  (  0.0000000  1.0000000  0.0000000 )       (  0.5000000 )
                  ( -0.0000000  0.0000000 -1.0000000 )       ( -0.9992311 )

      isym =  3     inversion

 cryst.   s( 3) = (    -1          0          0      )
                  (     0         -1          0      )
                  (     0          0         -1      )

 cart.    s( 3) = ( -1.0000000  0.0000000  0.0000000 )
                  (  0.0000000 -1.0000000  0.0000000 )
                  ( -0.0000000  0.0000000 -1.0000000 )

      isym =  4     inv. 180 deg rotation - cart. axis [0,1,0]

 cryst.   s( 4) = (    -1          0          0      )    f =(  0.5000000 )
                  (     0          1          0      )       (  0.0000000 )
                  (     0          0          1      )       ( -0.5000000 )

 cart.    s( 4) = (  1.0000000  0.0000000  0.0000000 )    f =( -0.0000000 )
                  (  0.0000000 -1.0000000  0.0000000 )       ( -0.5000000 )
                  (  0.0000000  0.0000000  1.0000000 )       (  0.9992311 )

   Cartesian axes

     site n.     atom                  positions (alat units)
         1        Li     tau(   1) = (  -0.9056877  -0.4850000  -0.2183702  )
         2        Li     tau(   2) = (  -0.1695678  -0.9850000  -0.7188621  )
         3        Li     tau(   3) = (  -0.1695678  -0.5150000  -1.7180932  )
         4        Li     tau(   4) = (  -0.9056877  -0.0150000  -1.2176013  )
         5        Al     tau(   5) = (  -0.3162326  -0.8217000  -1.1827820  )
         6        Al     tau(   6) = (  -0.7590228  -0.3217000  -1.7529125  )
         7        Al     tau(   7) = (  -0.7590228  -0.1783000  -0.7536814  )
         8        Al     tau(   8) = (  -0.3162326  -0.6783000  -0.1835509  )
         9        Cl     tau(   9) = (  -0.3292432  -0.6832000  -0.8869788  )
        10        Cl     tau(  10) = (  -0.7460122  -0.1832000  -0.0502534  )
        11        Cl     tau(  11) = (  -0.7460122  -0.3168000  -1.0494846  )
        12        Cl     tau(  12) = (  -0.3292432  -0.8168000  -1.8862100  )
        13        Cl     tau(  13) = (  -0.2058039  -0.1281000  -1.1300747  )
        14        Cl     tau(  14) = (  -0.8694515  -0.6281000  -1.8056198  )
        15        Cl     tau(  15) = (  -0.8694515  -0.8719000  -0.8063887  )
        16        Cl     tau(  16) = (  -0.2058039  -0.3719000  -0.1308436  )
        17        Cl     tau(  17) = (  -0.0801065  -0.6812000  -1.3666060  )
        18        Cl     tau(  18) = (  -0.9951489  -0.1812000  -1.5690886  )
        19        Cl     tau(  19) = (  -0.9951489  -0.3188000  -0.5698574  )
        20        Cl     tau(  20) = (  -0.0801065  -0.8188000  -0.3673748  )
        21        Cl     tau(  21) = (  -0.6024656  -0.8140000  -1.3383055  )
        22        Cl     tau(  22) = (  -0.4727898  -0.3140000  -1.5973890  )
        23        Cl     tau(  23) = (  -0.4727898  -0.1860000  -0.5981579  )
        24        Cl     tau(  24) = (  -0.6024656  -0.6860000  -0.3390744  )

   Crystallographic axes

     site n.     atom                  positions (cryst. coord.)
         1        Li     tau(   1) = (  0.4850000  0.8423000  0.1354000  )
         2        Li     tau(   2) = (  0.9850000  0.1577000  0.3646000  )
         3        Li     tau(   3) = (  0.5150000  0.1577000  0.8646000  )
         4        Li     tau(   4) = (  0.0150000  0.8423000  0.6354000  )
         5        Al     tau(   5) = (  0.8217000  0.2941000  0.6009700  )
         6        Al     tau(   6) = (  0.3217000  0.7059000  0.8990300  )
         7        Al     tau(   7) = (  0.1783000  0.7059000  0.3990300  )
         8        Al     tau(   8) = (  0.6783000  0.2941000  0.1009700  )
         9        Cl     tau(   9) = (  0.6832000  0.3062000  0.4533300  )
        10        Cl     tau(  10) = (  0.1832000  0.6938000  0.0466700  )
        11        Cl     tau(  11) = (  0.3168000  0.6938000  0.5466700  )
        12        Cl     tau(  12) = (  0.8168000  0.3062000  0.9533300  )
        13        Cl     tau(  13) = (  0.1281000  0.1914000  0.5714100  )
        14        Cl     tau(  14) = (  0.6281000  0.8086000  0.9285900  )
        15        Cl     tau(  15) = (  0.8719000  0.8086000  0.4285900  )
        16        Cl     tau(  16) = (  0.3719000  0.1914000  0.0714100  )
        17        Cl     tau(  17) = (  0.6812000  0.0745000  0.6861400  )
        18        Cl     tau(  18) = (  0.1812000  0.9255000  0.8138600  )
        19        Cl     tau(  19) = (  0.3188000  0.9255000  0.3138600  )
        20        Cl     tau(  20) = (  0.8188000  0.0745000  0.1861400  )
        21        Cl     tau(  21) = (  0.8140000  0.5603000  0.6870500  )
        22        Cl     tau(  22) = (  0.3140000  0.4397000  0.8129500  )
        23        Cl     tau(  23) = (  0.1860000  0.4397000  0.3129500  )
        24        Cl     tau(  24) = (  0.6860000  0.5603000  0.1870500  )

     number of k points=    39
                       cart. coord. in units 2pi/alat
        k(    1) = (  -0.0000000   0.0000000   0.0000000), wk =   0.0160000
        k(    2) = (  -0.0057704   0.0000000  -0.1000769), wk =   0.0320000
        k(    3) = (  -0.0115408   0.0000000  -0.2001539), wk =   0.0320000
        k(    4) = (  -0.1860023   0.0000000   0.0000000), wk =   0.0320000
        k(    5) = (  -0.1917727   0.0000000  -0.1000769), wk =   0.0320000
        k(    6) = (  -0.1975431   0.0000000  -0.2001539), wk =   0.0320000
        k(    7) = (  -0.1744615   0.0000000   0.2001539), wk =   0.0320000
        k(    8) = (  -0.1802319   0.0000000   0.1000769), wk =   0.0320000
        k(    9) = (  -0.3720046   0.0000000   0.0000000), wk =   0.0320000
        k(   10) = (  -0.3777750   0.0000000  -0.1000769), wk =   0.0320000
        k(   11) = (  -0.3835454   0.0000000  -0.2001539), wk =   0.0320000
        k(   12) = (  -0.3604638   0.0000000   0.2001539), wk =   0.0320000
        k(   13) = (  -0.3662342   0.0000000   0.1000769), wk =   0.0320000
        k(   14) = (  -0.0000000  -0.2000000   0.0000000), wk =   0.0320000
        k(   15) = (  -0.0057704  -0.2000000  -0.1000769), wk =   0.0640000
        k(   16) = (  -0.0115408  -0.2000000  -0.2001539), wk =   0.0640000
        k(   17) = (  -0.1860023  -0.2000000   0.0000000), wk =   0.0640000
        k(   18) = (  -0.1917727  -0.2000000  -0.1000769), wk =   0.0640000
        k(   19) = (  -0.1975431  -0.2000000  -0.2001539), wk =   0.0640000
        k(   20) = (  -0.1744615  -0.2000000   0.2001539), wk =   0.0640000
        k(   21) = (  -0.1802319  -0.2000000   0.1000769), wk =   0.0640000
        k(   22) = (  -0.3720046  -0.2000000   0.0000000), wk =   0.0640000
        k(   23) = (  -0.3777750  -0.2000000  -0.1000769), wk =   0.0640000
[...]
     1.0000   1.0000   1.0000   1.0000   1.0000   1.0000   1.0000   1.0000
     1.0000   1.0000   1.0000   1.0000   1.0000   1.0000   1.0000   1.0000

     highest occupied level (ev):     0.0824

!    total energy              =    -501.45851634 Ry
     estimated scf accuracy    <       0.00000087 Ry

     The total energy is the sum of the following terms:
     one-electron contribution =    -126.88626473 Ry
     hartree contribution      =     109.46430718 Ry
     xc contribution           =    -102.54334357 Ry
     ewald contribution        =    -381.49321522 Ry

     convergence has been achieved in   7 iterations

     Forces acting on atoms (cartesian axes, Ry/au):

     atom    1 type  1   force =    -0.00092073    0.00074415    0.00192913
     atom    2 type  1   force =     0.00092073    0.00074415   -0.00192913
     atom    3 type  1   force =     0.00092073   -0.00074415   -0.00192913
     atom    4 type  1   force =    -0.00092073   -0.00074415    0.00192913
     atom    5 type  2   force =    -0.00068439   -0.00192869    0.00194546
     atom    6 type  2   force =     0.00068439   -0.00192869   -0.00194546
     atom    7 type  2   force =     0.00068439    0.00192869   -0.00194546
     atom    8 type  2   force =    -0.00068439    0.00192869    0.00194546
     atom    9 type  3   force =    -0.00034494    0.00719029    0.01440590
     atom   10 type  3   force =     0.00034494    0.00719029   -0.01440590
     atom   11 type  3   force =     0.00034494   -0.00719029   -0.01440590
     atom   12 type  3   force =    -0.00034494   -0.00719029    0.01440590
     atom   13 type  3   force =     0.00596773   -0.01417572    0.00170755
     atom   14 type  3   force =    -0.00596773   -0.01417572   -0.00170755
     atom   15 type  3   force =    -0.00596773    0.01417572   -0.00170755
     atom   16 type  3   force =     0.00596773    0.01417572    0.00170755
     atom   17 type  3   force =     0.01180115    0.00731163   -0.01005809
     atom   18 type  3   force =    -0.01180115    0.00731163    0.01005809
     atom   19 type  3   force =    -0.01180115   -0.00731163    0.01005809
     atom   20 type  3   force =     0.01180115   -0.00731163   -0.01005809
     atom   21 type  3   force =    -0.01449757    0.00069591   -0.00795181
     atom   22 type  3   force =     0.01449757    0.00069591    0.00795181
     atom   23 type  3   force =     0.01449757   -0.00069591    0.00795181
     atom   24 type  3   force =    -0.01449757   -0.00069591   -0.00795181
     The non-local contrib.  to forces
     atom    1 type  1   force =    -0.01735277   -0.01337193   -0.00098286
     atom    2 type  1   force =     0.01735277   -0.01337193    0.00098286
     atom    3 type  1   force =     0.01735277    0.01337193    0.00098286
     atom    4 type  1   force =    -0.01735277    0.01337193   -0.00098286
     atom    5 type  2   force =     0.00080924    0.01441173   -0.03005297
     atom    6 type  2   force =    -0.00080924    0.01441173    0.03005297
     atom    7 type  2   force =    -0.00080924   -0.01441173    0.03005297
     atom    8 type  2   force =     0.00080924   -0.01441173   -0.03005297
     atom    9 type  3   force =     0.04932320   -0.18126926   -0.19614220
     atom   10 type  3   force =    -0.04932320   -0.18126926    0.19614220
     atom   11 type  3   force =    -0.04932320    0.18126926    0.19614220
     atom   12 type  3   force =     0.04932320    0.18126926   -0.19614220
     atom   13 type  3   force =    -0.02397982    0.25858897   -0.01801214
     atom   14 type  3   force =     0.02397982    0.25858897    0.01801214
     atom   15 type  3   force =     0.02397982   -0.25858897    0.01801214
     atom   16 type  3   force =    -0.02397982   -0.25858897   -0.01801214
     atom   17 type  3   force =    -0.18757962   -0.11498348    0.06328494
     atom   18 type  3   force =     0.18757962   -0.11498348   -0.06328494
     atom   19 type  3   force =     0.18757962    0.11498348   -0.06328494
     atom   20 type  3   force =    -0.18757962    0.11498348    0.06328494
     atom   21 type  3   force =     0.16581520   -0.07399202    0.18563535
     atom   22 type  3   force =    -0.16581520   -0.07399202   -0.18563535
     atom   23 type  3   force =    -0.16581520    0.07399202   -0.18563535
     atom   24 type  3   force =     0.16581520    0.07399202    0.18563535
     The ionic contribution  to forces
     atom    1 type  1   force =    -0.02423539   -0.05007099   -0.11403160
     atom    2 type  1   force =     0.02423539   -0.05007099    0.11403160
     atom    3 type  1   force =     0.02423539    0.05007099    0.11403160
     atom    4 type  1   force =    -0.02423539    0.05007099   -0.11403160
     atom    5 type  2   force =    -0.18827817    0.26150167   -0.19527978
     atom    6 type  2   force =     0.18827817    0.26150167    0.19527978
     atom    7 type  2   force =     0.18827817   -0.26150167    0.19527978
     atom    8 type  2   force =    -0.18827817   -0.26150167   -0.19527978
     atom    9 type  3   force =    -0.15118188    2.01723636    2.20437328
     atom   10 type  3   force =     0.15118188    2.01723636   -2.20437328
     atom   11 type  3   force =     0.15118188   -2.01723636   -2.20437328
     atom   12 type  3   force =    -0.15118188   -2.01723636    2.20437328
     atom   13 type  3   force =     0.32252200   -3.04795898   -0.01908978
     atom   14 type  3   force =    -0.32252200   -3.04795898    0.01908978
     atom   15 type  3   force =    -0.32252200    3.04795898    0.01908978
     atom   16 type  3   force =     0.32252200    3.04795898   -0.01908978
     atom   17 type  3   force =     1.72511832    1.44022468   -1.10806173
     atom   18 type  3   force =    -1.72511832    1.44022468    1.10806173
     atom   19 type  3   force =    -1.72511832   -1.44022468    1.10806173
     atom   20 type  3   force =     1.72511832   -1.44022468   -1.10806173
     atom   21 type  3   force =    -1.95880577    0.42461295   -1.37177756
     atom   22 type  3   force =     1.95880577    0.42461295    1.37177756
     atom   23 type  3   force =     1.95880577   -0.42461295    1.37177756
     atom   24 type  3   force =    -1.95880577   -0.42461295   -1.37177756
     The local contribution  to forces
     atom    1 type  1   force =     0.03804398    0.06216006    0.11673562
     atom    2 type  1   force =    -0.03804398    0.06216006   -0.11673562
     atom    3 type  1   force =    -0.03804398   -0.06216006   -0.11673562
     atom    4 type  1   force =     0.03804398   -0.06216006    0.11673562
     atom    5 type  2   force =     0.18676181   -0.27777869    0.22720252
     atom    6 type  2   force =    -0.18676181   -0.27777869   -0.22720252
     atom    7 type  2   force =    -0.18676181    0.27777869   -0.22720252
     atom    8 type  2   force =     0.18676181    0.27777869    0.22720252
     atom    9 type  3   force =     0.10136598   -1.82825807   -1.99382830
     atom   10 type  3   force =    -0.10136598   -1.82825807    1.99382830
     atom   11 type  3   force =    -0.10136598    1.82825807    1.99382830
     atom   12 type  3   force =     0.10136598    1.82825807   -1.99382830
     atom   13 type  3   force =    -0.29264785    2.77476620    0.03833399
     atom   14 type  3   force =     0.29264785    2.77476620   -0.03833399
     atom   15 type  3   force =     0.29264785   -2.77476620   -0.03833399
     atom   16 type  3   force =    -0.29264785   -2.77476620    0.03833399
     atom   17 type  3   force =    -1.52601720   -1.31783192    1.03465371
     atom   18 type  3   force =     1.52601720   -1.31783192   -1.03465371
     atom   19 type  3   force =     1.52601720    1.31783192   -1.03465371
     atom   20 type  3   force =    -1.52601720    1.31783192    1.03465371
     atom   21 type  3   force =     1.77847021   -0.34985424    1.17809221
     atom   22 type  3   force =    -1.77847021   -0.34985424   -1.17809221
     atom   23 type  3   force =    -1.77847021    0.34985424   -1.17809221
     atom   24 type  3   force =     1.77847021    0.34985424    1.17809221
     The core correction contribution to forces
     atom    1 type  1   force =     0.00262626    0.00202865    0.00018924
     atom    2 type  1   force =    -0.00262626    0.00202865   -0.00018924
     atom    3 type  1   force =    -0.00262626   -0.00202865   -0.00018924
     atom    4 type  1   force =     0.00262626   -0.00202865    0.00018924
     atom    5 type  2   force =     0.00000000    0.00000000    0.00000000
     atom    6 type  2   force =     0.00000000    0.00000000    0.00000000
     atom    7 type  2   force =     0.00000000    0.00000000    0.00000000
     atom    8 type  2   force =     0.00000000    0.00000000    0.00000000
     atom    9 type  3   force =     0.00000000    0.00000000    0.00000000
     atom   10 type  3   force =     0.00000000    0.00000000    0.00000000
     atom   11 type  3   force =     0.00000000    0.00000000    0.00000000
     atom   12 type  3   force =     0.00000000    0.00000000    0.00000000
     atom   13 type  3   force =     0.00000000    0.00000000    0.00000000
     atom   14 type  3   force =     0.00000000    0.00000000    0.00000000
     atom   15 type  3   force =     0.00000000    0.00000000    0.00000000
     atom   16 type  3   force =     0.00000000    0.00000000    0.00000000
     atom   17 type  3   force =     0.00000000    0.00000000    0.00000000
     atom   18 type  3   force =     0.00000000    0.00000000    0.00000000
     atom   19 type  3   force =     0.00000000    0.00000000    0.00000000
     atom   20 type  3   force =     0.00000000    0.00000000    0.00000000
     atom   21 type  3   force =     0.00000000    0.00000000    0.00000000
     atom   22 type  3   force =     0.00000000    0.00000000    0.00000000
     atom   23 type  3   force =     0.00000000    0.00000000    0.00000000
     atom   24 type  3   force =     0.00000000    0.00000000    0.00000000
     The Hubbard contrib.    to forces
     atom    1 type  1   force =     0.00000000    0.00000000    0.00000000
     atom    2 type  1   force =     0.00000000    0.00000000    0.00000000
     atom    3 type  1   force =     0.00000000    0.00000000    0.00000000
     atom    4 type  1   force =     0.00000000    0.00000000    0.00000000
     atom    5 type  2   force =     0.00000000    0.00000000    0.00000000
     atom    6 type  2   force =     0.00000000    0.00000000    0.00000000
     atom    7 type  2   force =     0.00000000    0.00000000    0.00000000
     atom    8 type  2   force =     0.00000000    0.00000000    0.00000000
     atom    9 type  3   force =     0.00000000    0.00000000    0.00000000
     atom   10 type  3   force =     0.00000000    0.00000000    0.00000000
     atom   11 type  3   force =     0.00000000    0.00000000    0.00000000
     atom   12 type  3   force =     0.00000000    0.00000000    0.00000000
     atom   13 type  3   force =     0.00000000    0.00000000    0.00000000
     atom   14 type  3   force =     0.00000000    0.00000000    0.00000000
     atom   15 type  3   force =     0.00000000    0.00000000    0.00000000
     atom   16 type  3   force =     0.00000000    0.00000000    0.00000000
     atom   17 type  3   force =     0.00000000    0.00000000    0.00000000
     atom   18 type  3   force =     0.00000000    0.00000000    0.00000000
     atom   19 type  3   force =     0.00000000    0.00000000    0.00000000
     atom   20 type  3   force =     0.00000000    0.00000000    0.00000000
     atom   21 type  3   force =     0.00000000    0.00000000    0.00000000
     atom   22 type  3   force =     0.00000000    0.00000000    0.00000000
     atom   23 type  3   force =     0.00000000    0.00000000    0.00000000
     atom   24 type  3   force =     0.00000000    0.00000000    0.00000000
     The SCF correction term to forces
     atom    1 type  1   force =    -0.00000281   -0.00000165    0.00001874
     atom    2 type  1   force =     0.00000281   -0.00000165   -0.00001874
     atom    3 type  1   force =     0.00000281    0.00000165   -0.00001874
     atom    4 type  1   force =    -0.00000281    0.00000165    0.00001874
     atom    5 type  2   force =     0.00002272   -0.00006341    0.00007569
     atom    6 type  2   force =    -0.00002272   -0.00006341   -0.00007569
     atom    7 type  2   force =    -0.00002272    0.00006341   -0.00007569
     atom    8 type  2   force =     0.00002272    0.00006341    0.00007569
     atom    9 type  3   force =     0.00014777   -0.00051874    0.00000313
     atom   10 type  3   force =    -0.00014777   -0.00051874   -0.00000313
     atom   11 type  3   force =    -0.00014777    0.00051874   -0.00000313
     atom   12 type  3   force =     0.00014777    0.00051874    0.00000313
     atom   13 type  3   force =     0.00007340    0.00042810    0.00047549
     atom   14 type  3   force =    -0.00007340    0.00042810   -0.00047549
     atom   15 type  3   force =    -0.00007340   -0.00042810   -0.00047549
     atom   16 type  3   force =     0.00007340   -0.00042810    0.00047549
     atom   17 type  3   force =     0.00027965   -0.00009765    0.00006499
     atom   18 type  3   force =    -0.00027965   -0.00009765   -0.00006499
     atom   19 type  3   force =    -0.00027965    0.00009765   -0.00006499
     atom   20 type  3   force =     0.00027965    0.00009765    0.00006499
     atom   21 type  3   force =     0.00002279   -0.00007078    0.00009819
     atom   22 type  3   force =    -0.00002279   -0.00007078   -0.00009819
     atom   23 type  3   force =    -0.00002279    0.00007078   -0.00009819
     atom   24 type  3   force =     0.00002279    0.00007078    0.00009819

     Total force =     0.065718     Total SCF correction =     0.001815

     Computing stress (Cartesian axis) and pressure

          total   stress  (Ry/bohr**3)                   (kbar)     P=        1.54
   0.00001289   0.00000000   0.00000246            1.90        0.00        0.36
   0.00000000   0.00001019   0.00000000            0.00        1.50        0.00
   0.00000246   0.00000000   0.00000841            0.36        0.00        1.24

     kinetic stress (kbar)   4582.72      0.00     -9.90
                                0.00   4629.60      0.00
                               -9.90      0.00   4587.41

     local   stress (kbar)  -6129.72     -0.00    -91.97
                               -0.00  -5368.74     -0.00
                              -91.97     -0.00  -5830.17

     nonloc. stress (kbar)   5698.81      0.00      1.16
                                0.00   5697.99      0.00
                                1.16      0.00   5698.82

     hartree stress (kbar)   1461.77      0.00     24.13
                                0.00   1224.92     -0.00
                               24.13     -0.00   1351.20

     exc-cor stress (kbar)  -1155.32      0.00      0.25
                                0.00  -1156.46     -0.00
                                0.25     -0.00  -1155.86

     corecor stress (kbar)    -20.04     -0.00     -0.02
                               -0.00    -20.03      0.00
                               -0.02      0.00    -19.85

     ewald   stress (kbar)  -4436.33     -0.00     76.71
                               -0.00  -5005.77      0.00
                               76.71      0.00  -4630.32

     hubbard stress (kbar)      0.00      0.00      0.00
                                0.00      0.00      0.00
                                0.00      0.00      0.00

     DFT-D   stress (kbar)      0.00      0.00      0.00
                                0.00      0.00      0.00
                                0.00      0.00      0.00

     XDM     stress (kbar)      0.00      0.00      0.00
                                0.00      0.00      0.00
                                0.00      0.00      0.00

     dft-nl  stress (kbar)      0.00      0.00      0.00
                                0.00      0.00      0.00
                                0.00      0.00      0.00

     TS-vdW  stress (kbar)      0.00      0.00      0.00
                                0.00      0.00      0.00
                                0.00      0.00      0.00

     MDB     stress (kbar)      0.00      0.00      0.00
                                0.00      0.00      0.00
                                0.00      0.00      0.00

     3D-RISM stress (kbar)      0.00      0.00      0.00
                                0.00      0.00      0.00
                                0.00      0.00      0.00

     Writing all to output data dir ./out/LAC.save/ :
     XML data file, charge density, pseudopotentials, collected wavefunctions

     General routines

     Parallel routines

   This run was terminated on:  20:15:18  10Nov2024

   JOB DONE.